  PAW_PBE O 08Apr2002                    
   6.00000000000000     
 parameters from PSCTR are:
   VRHFIN =O: s2p4
   LEXCH  = PE
   EATOM  =   432.3788 eV,   31.7789 Ry

   TITEL  = PAW_PBE O 08Apr2002
   LULTRA =        F    use ultrasoft PP ?
   IUNSCR =        1    unscreen: 0-lin 1-nonlin 2-no
   RPACOR =    1.200    partial core radius
   POMASS =   16.000; ZVAL   =    6.000    mass and valenz
   RCORE  =    1.520    outmost cutoff radius
   RWIGS  =    1.550; RWIGS  =    0.820    wigner-seitz radius (au A)
   ENMAX  =  400.000; ENMIN  =  300.000 eV
   ICORE  =        2    local potential
   LCOR   =        T    correct aug charges
   LPAW   =        T    paw PP
   EAUG   =  605.392
   DEXC   =    0.000
   RMAX   =    1.553    core radius for proj-oper
   RAUG   =    1.300    factor for augmentation sphere
   RDEP   =    1.550    radius for radial grids
   RDEPT  =    1.329    core radius for aug-charge
 
   Atomic configuration
    4 entries
     n  l   j            E        occ.
     1  0  0.50      -514.6923   2.0000
     2  0  0.50       -23.9615   2.0000
     2  1  0.50        -9.0305   4.0000
     3  2  1.50        -9.5241   0.0000
   Description
     l       E           TYP  RCUT    TYP  RCUT
     0    -23.9615318     23  1.200
     0     -9.5240782     23  1.200
     1     -9.0304911     23  1.520
     1      8.1634956     23  1.520
     2     -9.5240782      7  1.500
   Error from kinetic energy argument (eV)
   NDATA  =      100
   STEP   =   20.000   1.050
  163.      160.      159.      156.      154.      151.      148.      146.
  142.      139.      137.      134.      130.      126.      123.      119.
  115.      111.      108.      102.      98.8      95.2      90.0      86.6
  83.2      78.3      73.5      70.4      65.9      61.6      57.4      53.4
  49.6      46.0      42.6      39.3      35.3      32.4      28.9      26.4
  23.4      20.6      18.1      15.8      13.7      11.9      10.3      8.47
  7.22      5.87      4.73      3.95      3.13      2.45      1.80      1.37
  1.03     0.721     0.493     0.329     0.215     0.138     0.882E-01 0.534E-01
 0.367E-01 0.267E-01 0.223E-01 0.205E-01 0.193E-01 0.181E-01 0.162E-01 0.138E-01
 0.112E-01 0.878E-02 0.646E-02 0.490E-02 0.370E-02 0.300E-02 0.259E-02 0.238E-02
 0.219E-02 0.196E-02 0.167E-02 0.132E-02 0.100E-02 0.764E-03 0.617E-03 0.544E-03
 0.522E-03 0.507E-03 0.467E-03 0.403E-03 0.312E-03 0.236E-03 0.181E-03 0.157E-03
 0.152E-03 0.150E-03 0.139E-03 0.118E-03
END of PSCTR-controll parameters
 local part
   122.832189257630     
  0.23159076E+02  0.23156323E+02  0.23152891E+02  0.23147171E+02  0.23139165E+02
  0.23128873E+02  0.23116296E+02  0.23101432E+02  0.23084278E+02  0.23064830E+02
  0.23043078E+02  0.23019012E+02  0.22992619E+02  0.22963881E+02  0.22932780E+02
  0.22899292E+02  0.22863394E+02  0.22825057E+02  0.22784252E+02  0.22740947E+02
  0.22695106E+02  0.22646690E+02  0.22595660E+02  0.22541970E+02  0.22485572E+02
  0.22426415E+02  0.22364442E+02  0.22299595E+02  0.22231811E+02  0.22161023E+02
  0.22087162E+02  0.22010155E+02  0.21929927E+02  0.21846399E+02  0.21759491E+02
  0.21669120E+02  0.21575204E+02  0.21477655E+02  0.21376389E+02  0.21271317E+02
  0.21162354E+02  0.21049412E+02  0.20932407E+02  0.20811254E+02  0.20685873E+02
  0.20556184E+02  0.20422114E+02  0.20283592E+02  0.20140552E+02  0.19992934E+02
  0.19840684E+02  0.19683757E+02  0.19522111E+02  0.19355716E+02  0.19184549E+02
  0.19008597E+02  0.18827857E+02  0.18642337E+02  0.18452054E+02  0.18257039E+02
  0.18057334E+02  0.17852993E+02  0.17644083E+02  0.17430684E+02  0.17212889E+02
  0.16990805E+02  0.16764551E+02  0.16534262E+02  0.16300082E+02  0.16062173E+02
  0.15820708E+02  0.15575872E+02  0.15327866E+02  0.15076899E+02  0.14823194E+02
  0.14566987E+02  0.14308521E+02  0.14048052E+02  0.13785844E+02  0.13522170E+02
  0.13257311E+02  0.12991555E+02  0.12725195E+02  0.12458529E+02  0.12191862E+02
  0.11925499E+02  0.11659748E+02  0.11394918E+02  0.11131317E+02  0.10869254E+02
  0.10609033E+02  0.10350957E+02  0.10095322E+02  0.98424191E+01  0.95925338E+01
  0.93459424E+01  0.91029131E+01  0.88637039E+01  0.86285623E+01  0.83977240E+01
  0.81714123E+01  0.79498370E+01  0.77331941E+01  0.75216648E+01  0.73154148E+01
  0.71145940E+01  0.69193361E+01  0.67297579E+01  0.65459593E+01  0.63680230E+01
  0.61960140E+01  0.60299801E+01  0.58699517E+01  0.57159415E+01  0.55679454E+01
  0.54259421E+01  0.52898937E+01  0.51597461E+01  0.50354294E+01  0.49168586E+01
  0.48039340E+01  0.46965419E+01  0.45945555E+01  0.44978356E+01  0.44062315E+01
  0.43195814E+01  0.42377142E+01  0.41604497E+01  0.40875997E+01  0.40189692E+01
  0.39543575E+01  0.38935589E+01  0.38363637E+01  0.37825597E+01  0.37319327E+01
  0.36842680E+01  0.36393508E+01  0.35969678E+01  0.35569077E+01  0.35189623E+01
  0.34829274E+01  0.34486035E+01  0.34157967E+01  0.33843192E+01  0.33539905E+01
  0.33246375E+01  0.32960954E+01  0.32682079E+01  0.32408281E+01  0.32138185E+01
  0.31870516E+01  0.31604100E+01  0.31337865E+01  0.31070846E+01  0.30802181E+01
  0.30531115E+01  0.30256997E+01  0.29979279E+01  0.29697517E+01  0.29411363E+01
  0.29120570E+01  0.28824981E+01  0.28524530E+01  0.28219238E+01  0.27909204E+01
  0.27594606E+01  0.27275691E+01  0.26952771E+01  0.26626218E+01  0.26296457E+01
  0.25963962E+01  0.25629247E+01  0.25292860E+01  0.24955381E+01  0.24617409E+01
  0.24279562E+01  0.23942467E+01  0.23606758E+01  0.23273066E+01  0.22942016E+01
  0.22614221E+01  0.22290277E+01  0.21970760E+01  0.21656219E+01  0.21347173E+01
  0.21044110E+01  0.20747480E+01  0.20457692E+01  0.20175117E+01  0.19900079E+01
  0.19632859E+01  0.19373690E+01  0.19122757E+01  0.18880199E+01  0.18646106E+01
  0.18420521E+01  0.18203440E+01  0.17994812E+01  0.17794544E+01  0.17602500E+01
  0.17418502E+01  0.17242334E+01  0.17073746E+01  0.16912454E+01  0.16758144E+01
  0.16610474E+01  0.16469079E+01  0.16333574E+01  0.16203556E+01  0.16078610E+01
  0.15958307E+01  0.15842216E+01  0.15729898E+01  0.15620918E+01  0.15514842E+01
  0.15411242E+01  0.15309702E+01  0.15209814E+01  0.15111189E+01  0.15013454E+01
  0.14916254E+01  0.14819259E+01  0.14722160E+01  0.14624673E+01  0.14526543E+01
  0.14427541E+01  0.14327467E+01  0.14226150E+01  0.14123449E+01  0.14019253E+01
  0.13913480E+01  0.13806076E+01  0.13697019E+01  0.13586312E+01  0.13473984E+01
  0.13360094E+01  0.13244720E+01  0.13127965E+01  0.13009955E+01  0.12890832E+01
  0.12770756E+01  0.12649904E+01  0.12528465E+01  0.12406638E+01  0.12284633E+01
  0.12162666E+01  0.12040955E+01  0.11919724E+01  0.11799196E+01  0.11679590E+01
  0.11561124E+01  0.11444009E+01  0.11328447E+01  0.11214633E+01  0.11102750E+01
  0.10992968E+01  0.10885445E+01  0.10780322E+01  0.10677726E+01  0.10577767E+01
  0.10480535E+01  0.10386106E+01  0.10294535E+01  0.10205860E+01  0.10120100E+01
  0.10037256E+01  0.99573111E+00  0.98802302E+00  0.98059619E+00  0.97344388E+00
  0.96655777E+00  0.95992813E+00  0.95354389E+00  0.94739277E+00  0.94146141E+00
  0.93573549E+00  0.93019985E+00  0.92483868E+00  0.91963564E+00  0.91457398E+00
  0.90963674E+00  0.90480684E+00  0.90006727E+00  0.89540118E+00  0.89079207E+00
  0.88622388E+00  0.88168111E+00  0.87714897E+00  0.87261346E+00  0.86806148E+00
  0.86348092E+00  0.85886072E+00  0.85419098E+00  0.84946295E+00  0.84466914E+00
  0.83980333E+00  0.83486058E+00  0.82983722E+00  0.82473092E+00  0.81954060E+00
  0.81426645E+00  0.80890988E+00  0.80347350E+00  0.79796101E+00  0.79237722E+00
  0.78672792E+00  0.78101981E+00  0.77526043E+00  0.76945809E+00  0.76362171E+00
  0.75776079E+00  0.75188527E+00  0.74600545E+00  0.74013186E+00  0.73427518E+00
  0.72844613E+00  0.72265536E+00  0.71691337E+00  0.71123040E+00  0.70561634E+00
  0.70008066E+00  0.69463230E+00  0.68927961E+00  0.68403029E+00  0.67889132E+00
  0.67386890E+00  0.66896843E+00  0.66419444E+00  0.65955058E+00  0.65503961E+00
  0.65066336E+00  0.64642275E+00  0.64231779E+00  0.63834759E+00  0.63451038E+00
  0.63080353E+00  0.62722361E+00  0.62376640E+00  0.62042695E+00  0.61719965E+00
  0.61407827E+00  0.61105604E+00  0.60812569E+00  0.60527956E+00  0.60250964E+00
  0.59980765E+00  0.59716514E+00  0.59457353E+00  0.59202421E+00  0.58950861E+00
  0.58701826E+00  0.58454489E+00  0.58208046E+00  0.57961727E+00  0.57714797E+00
  0.57466567E+00  0.57216395E+00  0.56963692E+00  0.56707928E+00  0.56448633E+00
  0.56185400E+00  0.55917889E+00  0.55645829E+00  0.55369014E+00  0.55087311E+00
  0.54800654E+00  0.54509046E+00  0.54212556E+00  0.53911318E+00  0.53605530E+00
  0.53295448E+00  0.52981384E+00  0.52663701E+00  0.52342811E+00  0.52019167E+00
  0.51693261E+00  0.51365617E+00  0.51036786E+00  0.50707338E+00  0.50377862E+00
  0.50048955E+00  0.49721218E+00  0.49395251E+00  0.49071647E+00  0.48750986E+00
  0.48433829E+00  0.48120716E+00  0.47812159E+00  0.47508636E+00  0.47210591E+00
  0.46918428E+00  0.46632508E+00  0.46353145E+00  0.46080606E+00  0.45815110E+00
  0.45556823E+00  0.45305860E+00  0.45062282E+00  0.44826101E+00  0.44597273E+00
  0.44375707E+00  0.44161261E+00  0.43953746E+00  0.43752927E+00  0.43558527E+00
  0.43370232E+00  0.43187688E+00  0.43010511E+00  0.42838289E+00  0.42670584E+00
  0.42506939E+00  0.42346879E+00  0.42189920E+00  0.42035569E+00  0.41883331E+00
  0.41732712E+00  0.41583226E+00  0.41434394E+00  0.41285754E+00  0.41136861E+00
  0.40987293E+00  0.40836651E+00  0.40684568E+00  0.40530705E+00  0.40374758E+00
  0.40216459E+00  0.40055578E+00  0.39891922E+00  0.39725340E+00  0.39555721E+00
  0.39382995E+00  0.39207134E+00  0.39028149E+00  0.38846093E+00  0.38661055E+00
  0.38473164E+00  0.38282582E+00  0.38089505E+00  0.37894160E+00  0.37696803E+00
  0.37497713E+00  0.37297194E+00  0.37095567E+00  0.36893171E+00  0.36690355E+00
  0.36487479E+00  0.36284908E+00  0.36083009E+00  0.35882146E+00  0.35682682E+00
  0.35484967E+00  0.35289344E+00  0.35096139E+00  0.34905661E+00  0.34718199E+00
  0.34534019E+00  0.34353365E+00  0.34176451E+00  0.34003465E+00  0.33834565E+00
  0.33669877E+00  0.33509498E+00  0.33353491E+00  0.33201887E+00  0.33054686E+00
  0.32911854E+00  0.32773328E+00  0.32639013E+00  0.32508786E+00  0.32382497E+00
  0.32259969E+00  0.32141002E+00  0.32025373E+00  0.31912841E+00  0.31803148E+00
  0.31696019E+00  0.31591171E+00  0.31488308E+00  0.31387130E+00  0.31287331E+00
  0.31188607E+00  0.31090654E+00  0.30993172E+00  0.30895869E+00  0.30798463E+00
  0.30700685E+00  0.30602279E+00  0.30503006E+00  0.30402644E+00  0.30300994E+00
  0.30197876E+00  0.30093135E+00  0.29986638E+00  0.29878278E+00  0.29767973E+00
  0.29655667E+00  0.29541330E+00  0.29424956E+00  0.29306568E+00  0.29186211E+00
  0.29063955E+00  0.28939893E+00  0.28814140E+00  0.28686831E+00  0.28558119E+00
  0.28428176E+00  0.28297188E+00  0.28165354E+00  0.28032884E+00  0.27899999E+00
  0.27766925E+00  0.27633892E+00  0.27501136E+00  0.27368889E+00  0.27237383E+00
  0.27106847E+00  0.26977500E+00  0.26849556E+00  0.26723218E+00  0.26598676E+00
  0.26476107E+00  0.26355673E+00  0.26237518E+00  0.26121771E+00  0.26008540E+00
  0.25897915E+00  0.25789965E+00  0.25684741E+00  0.25582268E+00  0.25482556E+00
  0.25385590E+00  0.25291338E+00  0.25199746E+00  0.25110741E+00  0.25024234E+00
  0.24940116E+00  0.24858265E+00  0.24778542E+00  0.24700797E+00  0.24624867E+00
  0.24550578E+00  0.24477751E+00  0.24406197E+00  0.24335725E+00  0.24266139E+00
  0.24197242E+00  0.24128839E+00  0.24060737E+00  0.23992746E+00  0.23924683E+00
  0.23856374E+00  0.23787651E+00  0.23718358E+00  0.23648351E+00  0.23577499E+00
  0.23505683E+00  0.23432802E+00  0.23358767E+00  0.23283507E+00  0.23206967E+00
  0.23129111E+00  0.23049916E+00  0.22969380E+00  0.22887514E+00  0.22804348E+00
  0.22719928E+00  0.22634313E+00  0.22547579E+00  0.22459812E+00  0.22371115E+00
  0.22281599E+00  0.22191386E+00  0.22100608E+00  0.22009402E+00  0.21917913E+00
  0.21826291E+00  0.21734688E+00  0.21643258E+00  0.21552155E+00  0.21461532E+00
  0.21371540E+00  0.21282324E+00  0.21194024E+00  0.21106775E+00  0.21020701E+00
  0.20935919E+00  0.20852536E+00  0.20770646E+00  0.20690333E+00  0.20611668E+00
  0.20534709E+00  0.20459501E+00  0.20386075E+00  0.20314447E+00  0.20244620E+00
  0.20176585E+00  0.20110316E+00  0.20045776E+00  0.19982914E+00  0.19921668E+00
  0.19861965E+00  0.19803720E+00  0.19746840E+00  0.19691221E+00  0.19636753E+00
  0.19583321E+00  0.19530800E+00  0.19479065E+00  0.19427987E+00  0.19377435E+00
  0.19327275E+00  0.19277379E+00  0.19227616E+00  0.19177861E+00  0.19127992E+00
  0.19077894E+00  0.19027456E+00  0.18976576E+00  0.18925161E+00  0.18873125E+00
  0.18820392E+00  0.18766897E+00  0.18712585E+00  0.18657414E+00  0.18601351E+00
  0.18544376E+00  0.18486480E+00  0.18427666E+00  0.18367948E+00  0.18307352E+00
  0.18245915E+00  0.18183681E+00  0.18120709E+00  0.18057063E+00  0.17992815E+00
  0.17928049E+00  0.17862850E+00  0.17797313E+00  0.17731536E+00  0.17665620E+00
  0.17599671E+00  0.17533794E+00  0.17468098E+00  0.17402688E+00  0.17337670E+00
  0.17273147E+00  0.17209218E+00  0.17145979E+00  0.17083519E+00  0.17021923E+00
  0.16961266E+00  0.16901619E+00  0.16843044E+00  0.16785593E+00  0.16729311E+00
  0.16674233E+00  0.16620382E+00  0.16567775E+00  0.16516418E+00  0.16466305E+00
  0.16417422E+00  0.16369747E+00  0.16323245E+00  0.16277877E+00  0.16233591E+00
  0.16190329E+00  0.16148029E+00  0.16106617E+00  0.16066018E+00  0.16026148E+00
  0.15986923E+00  0.15948252E+00  0.15910044E+00  0.15872205E+00  0.15834641E+00
  0.15797257E+00  0.15759962E+00  0.15722664E+00  0.15685276E+00  0.15647712E+00
  0.15609893E+00  0.15571745E+00  0.15533198E+00  0.15494190E+00  0.15454664E+00
  0.15414573E+00  0.15373875E+00  0.15332538E+00  0.15290538E+00  0.15247858E+00
  0.15204491E+00  0.15160438E+00  0.15115709E+00  0.15070321E+00  0.15024300E+00
  0.14977680E+00  0.14930502E+00  0.14882812E+00  0.14834664E+00  0.14786118E+00
  0.14737239E+00  0.14688094E+00  0.14638757E+00  0.14589304E+00  0.14539812E+00
  0.14490360E+00  0.14441028E+00  0.14391897E+00  0.14343045E+00  0.14294550E+00
  0.14246486E+00  0.14198926E+00  0.14151937E+00  0.14105583E+00  0.14059922E+00
  0.14015009E+00  0.13970890E+00  0.13927606E+00  0.13885191E+00  0.13843672E+00
  0.13803069E+00  0.13763396E+00  0.13724656E+00  0.13686847E+00  0.13649960E+00
  0.13613977E+00  0.13578875E+00  0.13544622E+00  0.13511181E+00  0.13478509E+00
  0.13446556E+00  0.13415270E+00  0.13384592E+00  0.13354458E+00  0.13324804E+00
  0.13295561E+00  0.13266659E+00  0.13238025E+00  0.13209587E+00  0.13181273E+00
  0.13153011E+00  0.13124730E+00  0.13096362E+00  0.13067842E+00  0.13039107E+00
  0.13010098E+00  0.12980762E+00  0.12951049E+00  0.12920914E+00  0.12890321E+00
  0.12859235E+00  0.12827631E+00  0.12795489E+00  0.12762796E+00  0.12729544E+00
  0.12695734E+00  0.12661372E+00  0.12626472E+00  0.12591053E+00  0.12555140E+00
  0.12518765E+00  0.12481965E+00  0.12444781E+00  0.12407259E+00  0.12369450E+00
  0.12331409E+00  0.12293191E+00  0.12254858E+00  0.12216470E+00  0.12178091E+00
  0.12139784E+00  0.12101613E+00  0.12063641E+00  0.12025930E+00  0.11988541E+00
  0.11951532E+00  0.11914958E+00  0.11878870E+00  0.11843317E+00  0.11808343E+00
  0.11773987E+00  0.11740282E+00  0.11707258E+00  0.11674939E+00  0.11643341E+00
  0.11612476E+00  0.11582351E+00  0.11552965E+00  0.11524312E+00  0.11496380E+00
  0.11469151E+00  0.11442602E+00  0.11416704E+00  0.11391424E+00  0.11366725E+00
  0.11342562E+00  0.11318892E+00  0.11295663E+00  0.11272824E+00  0.11250321E+00
  0.11228096E+00  0.11206092E+00  0.11184250E+00  0.11162511E+00  0.11140817E+00
  0.11119111E+00  0.11097336E+00  0.11075438E+00  0.11053365E+00  0.11031069E+00
  0.11008504E+00  0.10985629E+00  0.10962407E+00  0.10938804E+00  0.10914792E+00
  0.10890348E+00  0.10865453E+00  0.10840094E+00  0.10814265E+00  0.10787963E+00
  0.10761190E+00  0.10733957E+00  0.10706277E+00  0.10678168E+00  0.10649655E+00
  0.10620766E+00  0.10591533E+00  0.10561994E+00  0.10532187E+00  0.10502157E+00
  0.10471949E+00  0.10441611E+00  0.10411195E+00  0.10380750E+00  0.10350329E+00
  0.10319985E+00  0.10289770E+00  0.10259736E+00  0.10229933E+00  0.10200411E+00
  0.10171215E+00  0.10142390E+00  0.10113978E+00  0.10086017E+00  0.10058540E+00
  0.10031577E+00  0.10005156E+00  0.99792978E-01  0.99540193E-01  0.99293328E-01
  0.99052459E-01  0.98817610E-01  0.98588757E-01  0.98365827E-01  0.98148698E-01
  0.97937203E-01  0.97731130E-01  0.97530225E-01  0.97334195E-01  0.97142707E-01
  0.96955400E-01  0.96771879E-01  0.96591726E-01  0.96414497E-01  0.96239735E-01
  0.96066966E-01  0.95895709E-01  0.95725476E-01  0.95555783E-01  0.95386148E-01
  0.95216099E-01  0.95045178E-01  0.94872945E-01  0.94698983E-01  0.94522899E-01
  0.94344330E-01  0.94162946E-01  0.93978451E-01  0.93790588E-01  0.93599139E-01
  0.93403927E-01  0.93204820E-01  0.93001728E-01  0.92794609E-01  0.92583463E-01
  0.92368337E-01  0.92149319E-01  0.91926543E-01  0.91700184E-01  0.91470454E-01
  0.91237604E-01  0.91001919E-01  0.90763714E-01  0.90523335E-01  0.90281152E-01
  0.90037554E-01  0.89792951E-01  0.89547764E-01  0.89302426E-01  0.89057374E-01
  0.88813047E-01  0.88569881E-01  0.88328303E-01  0.88088732E-01  0.87851569E-01
  0.87617198E-01  0.87385980E-01  0.87158250E-01  0.86934315E-01  0.86714450E-01
  0.86498897E-01  0.86287863E-01  0.86081515E-01  0.85879983E-01  0.85683358E-01
  0.85491686E-01  0.85304976E-01  0.85123193E-01  0.84946265E-01  0.84774075E-01
  0.84606474E-01  0.84443271E-01  0.84284243E-01  0.84129135E-01  0.83977661E-01
  0.83829509E-01  0.83684343E-01  0.83541806E-01  0.83401522E-01  0.83263104E-01
  0.83126153E-01  0.82990265E-01  0.82855032E-01  0.82720048E-01  0.82584911E-01
  0.82449231E-01  0.82312628E-01  0.82174739E-01  0.82035220E-01  0.81893749E-01
  0.81750032E-01  0.81603798E-01  0.81454810E-01  0.81302863E-01  0.81147783E-01
  0.80989434E-01  0.80827715E-01  0.80662565E-01  0.80493956E-01  0.80321902E-01
  0.80146453E-01  0.79967695E-01  0.79785750E-01  0.79600776E-01  0.79412960E-01
  0.79222523E-01  0.79029713E-01  0.78834802E-01  0.78638088E-01  0.78439887E-01
  0.78240534E-01  0.78040377E-01  0.77839773E-01  0.77639090E-01  0.77438697E-01
  0.77238964E-01  0.77040257E-01  0.76842936E-01  0.76647351E-01  0.76453836E-01
  0.76262713E-01  0.76074279E-01  0.75888812E-01  0.75706566E-01  0.75527767E-01
  0.75352611E-01  0.75181266E-01  0.75013866E-01  0.74850514E-01  0.74691276E-01
  0.74536186E-01  0.74385241E-01  0.74238407E-01  0.74095612E-01  0.73956753E-01
  0.73821695E-01  0.73690270E-01  0.73562286E-01  0.73437519E-01  0.73315724E-01
  0.73196632E-01  0.73079954E-01  0.72965386E-01  0.72852607E-01  0.72741287E-01
  0.72631089E-01  0.72521667E-01  0.72412679E-01  0.72303780E-01  0.72194632E-01
 gradient corrections used for XC
           5
 core charge-density (partial)
  0.26956851E-02  0.26948879E-02  0.26924976E-02  0.26885178E-02  0.26829551E-02
  0.26758182E-02  0.26671185E-02  0.26568697E-02  0.26450880E-02  0.26317922E-02
  0.26170031E-02  0.26007439E-02  0.25830402E-02  0.25639196E-02  0.25434119E-02
  0.25215489E-02  0.24983643E-02  0.24738939E-02  0.24481750E-02  0.24212469E-02
  0.23931503E-02  0.23639276E-02  0.23336224E-02  0.23022798E-02  0.22699462E-02
  0.22366689E-02  0.22024963E-02  0.21674778E-02  0.21316636E-02  0.20951042E-02
  0.20578513E-02  0.20199565E-02  0.19814721E-02  0.19424506E-02  0.19029443E-02
  0.18630061E-02  0.18226882E-02  0.17820431E-02  0.17411227E-02  0.16999786E-02
  0.16586620E-02  0.16172234E-02  0.15757125E-02  0.15341786E-02  0.14926697E-02
  0.14512331E-02  0.14099150E-02  0.13687605E-02  0.13278136E-02  0.12871169E-02
  0.12467118E-02  0.12066384E-02  0.11669351E-02  0.11276391E-02  0.10887861E-02
  0.10504099E-02  0.10125431E-02  0.97521650E-03  0.93845915E-03  0.90229855E-03
  0.86676047E-03  0.83186896E-03  0.79764634E-03  0.76411323E-03  0.73128851E-03
  0.69918935E-03  0.66783118E-03  0.63722777E-03  0.60739118E-03  0.57833182E-03
  0.55005845E-03  0.52257823E-03  0.49589673E-03  0.47001796E-03  0.44494445E-03
  0.42067724E-03  0.39721593E-03  0.37455875E-03  0.35270258E-03  0.33164303E-03
  0.31137445E-03  0.29189001E-03  0.27318174E-03  0.25524059E-03  0.23805651E-03
  0.22161846E-03  0.20591448E-03  0.19093180E-03  0.17665682E-03  0.16307522E-03
  0.15017201E-03  0.13793157E-03  0.12633773E-03  0.11537381E-03  0.10502268E-03
  0.95266838E-04  0.86088431E-04  0.77469330E-04  0.69391177E-04  0.61835435E-04
  0.54783440E-04  0.48216450E-04  0.42115690E-04  0.36462395E-04  0.31237860E-04
  0.26423475E-04  0.22000766E-04  0.17951438E-04  0.14257401E-04  0.10900813E-04
  0.78641060E-05  0.51300188E-05  0.26816223E-05  0.50234588E-06 -0.14239987E-05
 -0.31131967E-05 -0.45806104E-05 -0.58411624E-05 -0.69093198E-05 -0.77990812E-05
 -0.85239648E-05 -0.90969994E-05 -0.95307162E-05 -0.98371432E-05 -0.10027801E-04
 -0.10113698E-04 -0.10105336E-04 -0.10012700E-04 -0.98452723E-05 -0.96120262E-05
 -0.93214360E-05 -0.89814816E-05 -0.85996553E-05 -0.81829709E-05 -0.77379722E-05
 -0.72707439E-05 -0.67869224E-05 -0.62917078E-05 -0.57898765E-05 -0.52857946E-05
 -0.47834316E-05 -0.42863751E-05 -0.37978450E-05 -0.33207093E-05 -0.28574991E-05
 -0.24104243E-05 -0.19813897E-05 -0.15720106E-05 -0.11836287E-05 -0.81732829E-06
 -0.47395201E-06 -0.15411646E-06  0.14177213E-06  0.41350264E-06  0.66104393E-06
  0.88453011E-06  0.10842461E-05  0.12606136E-05  0.14141774E-05  0.15455922E-05
  0.16556097E-05  0.17450666E-05  0.18148726E-05  0.18659991E-05  0.18994686E-05
  0.19163445E-05  0.19177212E-05  0.19047153E-05  0.18784569E-05  0.18400816E-05
  0.17907231E-05  0.17315063E-05  0.16635410E-05  0.15879162E-05  0.15056946E-05
  0.14179081E-05  0.13255534E-05  0.12295886E-05  0.11309293E-05  0.10304468E-05
  0.92896462E-06  0.82725761E-06  0.72604987E-06  0.62601385E-06  0.52776961E-06
  0.43188445E-06  0.33887283E-06  0.24919672E-06  0.16326606E-06  0.81439654E-07
  0.40262264E-08 -0.68714308E-07 -0.13656933E-06 -0.19937183E-06 -0.25699859E-06
 -0.30936819E-06 -0.35643889E-06 -0.39820647E-06 -0.43470186E-06 -0.46598888E-06
 -0.49216175E-06 -0.51334268E-06 -0.52967942E-06 -0.54134281E-06 -0.54852426E-06
 -0.55143342E-06 -0.55029570E-06 -0.54534999E-06 -0.53684633E-06 -0.52504370E-06
 -0.51020789E-06 -0.49260943E-06 -0.47252162E-06 -0.45021864E-06 -0.42597380E-06
 -0.40005786E-06 -0.37273747E-06 -0.34427373E-06 -0.31492086E-06 -0.28492498E-06
 -0.25452299E-06 -0.22394162E-06 -0.19339654E-06 -0.16309161E-06 -0.13321823E-06
 -0.10395482E-06 -0.75466363E-07 -0.47904135E-07 -0.21405430E-07  0.39065408E-08
  0.27922686E-07  0.50547986E-07  0.71701356E-07  0.91315432E-07  0.10933629E-06
  0.12572310E-06  0.14044769E-06  0.15349412E-06  0.16485813E-06  0.17454657E-06
  0.18257685E-06  0.18897624E-06  0.19378124E-06  0.19703692E-06  0.19879615E-06
  0.19911893E-06  0.19807167E-06  0.19572642E-06  0.19216018E-06  0.18745416E-06
  0.18169308E-06  0.17496446E-06  0.16735793E-06  0.15896458E-06  0.14987633E-06
  0.14018527E-06  0.12998312E-06  0.11936066E-06  0.10840718E-06  0.97210008E-07
  0.85854060E-07  0.74421402E-07  0.62990870E-07  0.51637725E-07  0.40433344E-07
  0.29444942E-07  0.18735345E-07  0.83627867E-08 -0.16192457E-08 -0.11162140E-07
 -0.20222244E-07 -0.28760923E-07 -0.36744579E-07 -0.44144641E-07 -0.50937524E-07
 -0.57104559E-07 -0.62631899E-07 -0.67510393E-07 -0.71735446E-07 -0.75306849E-07
 -0.78228593E-07 -0.80508664E-07 -0.82158829E-07 -0.83194392E-07 -0.83633960E-07
 -0.83499180E-07 -0.82814479E-07 -0.81606794E-07 -0.79905300E-07 -0.77741134E-07
 -0.75147120E-07 -0.72157492E-07 -0.68807622E-07 -0.65133755E-07 -0.61172744E-07
 -0.56961793E-07 -0.52538215E-07 -0.47939188E-07 -0.43201533E-07 -0.38361495E-07
 -0.33454537E-07 -0.28515156E-07 -0.23576698E-07 -0.18671199E-07 -0.13829235E-07
 -0.90797884E-08 -0.44501276E-08  0.34295102E-10  0.43499333E-08  0.84752195E-08
  0.12390624E-07  0.16078698E-07  0.19524104E-07  0.22713630E-07  0.25636193E-07
  0.28282824E-07  0.30646648E-07  0.32722846E-07  0.34508608E-07  0.36003075E-07
  0.37207273E-07  0.38124034E-07  0.38757915E-07  0.39115100E-07  0.39203307E-07
  0.39031681E-07  0.38610684E-07  0.37951983E-07  0.37068333E-07  0.35973454E-07
  0.34681919E-07  0.33209022E-07  0.31570665E-07  0.29783232E-07  0.27863470E-07
  0.25828376E-07  0.23695074E-07  0.21480712E-07  0.19202347E-07  0.16876847E-07
  0.14520792E-07  0.12150375E-07  0.97813212E-08  0.74288040E-08  0.51073681E-08
  0.28308617E-08  0.61237406E-09 -0.15358199E-08 -0.36023086E-08 -0.55765849E-08
 -0.74490811E-08 -0.92111966E-08 -0.10855319E-07 -0.12374837E-07 -0.13764149E-07
 -0.15018664E-07 -0.16134795E-07 -0.17109951E-07 -0.17942515E-07 -0.18631827E-07
 -0.19178150E-07 -0.19582647E-07 -0.19847333E-07 -0.19975044E-07 -0.19969388E-07
 -0.19834695E-07 -0.19575973E-07 -0.19198848E-07 -0.18709515E-07 -0.18114674E-07
 -0.17421480E-07 -0.16637477E-07 -0.15770541E-07 -0.14828824E-07 -0.13820687E-07
 -0.12754647E-07 -0.11639319E-07 -0.10483354E-07 -0.92953922E-08 -0.80840013E-08
 -0.68576308E-08 -0.56245614E-08 -0.43928588E-08 -0.31703303E-08 -0.19644843E-08
 -0.78249266E-09  0.36884322E-09  0.14831235E-08  0.25543773E-08  0.35770865E-08
  0.45462067E-08  0.54571835E-08  0.63059662E-08  0.70890179E-08  0.78033217E-08
  0.84463835E-08  0.90162322E-08  0.95114162E-08  0.99309965E-08  0.10274537E-07
  0.10542094E-07  0.10734198E-07  0.10851840E-07  0.10896447E-07  0.10869866E-07
  0.10774336E-07  0.10612464E-07  0.10387198E-07  0.10101796E-07  0.97598041E-08
  0.93650167E-08  0.89214524E-08  0.84333197E-08  0.79049862E-08  0.73409466E-08
  0.67457913E-08  0.61241749E-08  0.54807856E-08  0.48203154E-08  0.41474302E-08
  0.34667422E-08  0.27827825E-08  0.20999751E-08  0.14226128E-08  0.75483407E-09
  0.10060160E-09 -0.53631723E-09 -0.11523684E-08 -0.17442272E-08 -0.23088127E-08
 -0.28432999E-08 -0.33451304E-08 -0.38120207E-08 -0.42419689E-08 -0.46332594E-08
 -0.49844657E-08 -0.52944511E-08 -0.55623683E-08 -0.57876564E-08 -0.59700367E-08
 -0.61095067E-08 -0.62063329E-08 -0.62610415E-08 -0.62744085E-08 -0.62474480E-08
 -0.61813994E-08 -0.60777139E-08 -0.59380398E-08 -0.57642069E-08 -0.55582105E-08
 -0.53221944E-08 -0.50584340E-08 -0.47693185E-08 -0.44573329E-08 -0.41250405E-08
 -0.37750647E-08 -0.34100711E-08 -0.30327502E-08 -0.26457995E-08 -0.22519071E-08
 -0.18537352E-08 -0.14539040E-08 -0.10549768E-08 -0.65944544E-09 -0.26971674E-09
  0.11190021E-09  0.48320592E-09  0.84212128E-09  0.11866974E-08  0.15151245E-08
  0.18257392E-08  0.21170316E-08  0.23876505E-08  0.26364079E-08  0.28622819E-08
  0.30644194E-08  0.32421368E-08  0.33949200E-08  0.35224234E-08  0.36244681E-08
  0.37010384E-08  0.37522781E-08  0.37784856E-08  0.37801086E-08  0.37577368E-08
  0.37120957E-08  0.36440381E-08  0.35545359E-08  0.34446714E-08  0.33156275E-08
  0.31686783E-08  0.30051785E-08  0.28265538E-08  0.26342896E-08  0.24299207E-08
  0.22150207E-08  0.19911912E-08  0.17600511E-08  0.15232263E-08  0.12823394E-08
  0.10390000E-08  0.79479449E-09  0.55127727E-09  0.30996168E-09  0.72311632E-10
 -0.16026627E-09 -0.38643010E-09 -0.60490939E-09 -0.81451133E-09 -0.10141263E-08
 -0.12027328E-08 -0.13794018E-08 -0.15433002E-08 -0.16936937E-08 -0.18299494E-08
 -0.19515369E-08 -0.20580297E-08 -0.21491049E-08 -0.22245432E-08 -0.22842279E-08
 -0.23281429E-08 -0.23563709E-08 -0.23690904E-08 -0.23665725E-08 -0.23491770E-08
 -0.23173482E-08 -0.22716105E-08 -0.22125628E-08 -0.21408736E-08 -0.20572752E-08
 -0.19625573E-08 -0.18575615E-08 -0.17431744E-08 -0.16203214E-08 -0.14899600E-08
 -0.13530731E-08 -0.12106625E-08 -0.10637421E-08 -0.91333159E-09 -0.76044975E-09
 -0.60610841E-09 -0.45130621E-09 -0.29702272E-09 -0.14421284E-09  0.61985696E-11
  0.15332178E-09  0.29630692E-09  0.43434832E-09  0.56668859E-09  0.69262223E-09
  0.81149885E-09  0.92272602E-09  0.10257717E-08  0.11201661E-08  0.12055035E-08
  0.12814430E-08  0.13477098E-08  0.14040948E-08  0.14504550E-08  0.14867127E-08
  0.15128548E-08  0.15289313E-08  0.15350539E-08  0.15313936E-08  0.15181788E-08
  0.14956926E-08  0.14642694E-08  0.14242927E-08  0.13761907E-08  0.13204334E-08
  0.12575285E-08  0.11880176E-08  0.11124721E-08  0.10314890E-08  0.94568677E-09
  0.85570104E-09  0.76218029E-09  0.66578159E-09  0.56716641E-09  0.46699635E-09
  0.36592913E-09  0.26461456E-09  0.16369071E-09  0.63780179E-10 -0.34513406E-10
 -0.13060875E-09 -0.22395004E-09 -0.31400981E-09 -0.40029171E-09 -0.48233285E-09
 -0.55970604E-09 -0.63202171E-09 -0.69892952E-09 -0.76011978E-09 -0.81532450E-09
 -0.86431826E-09 -0.90691870E-09 -0.94298682E-09 -0.97242696E-09 -0.99518653E-09
 -0.10112555E-08 -0.10206655E-08 -0.10234889E-08 -0.10198378E-08 -0.10098620E-08
 -0.99374760E-09 -0.97171544E-09 -0.94401857E-09 -0.91094032E-09 -0.87279186E-09
 -0.82990981E-09 -0.78265359E-09 -0.73140280E-09 -0.67655446E-09 -0.61852021E-09
 -0.55772353E-09 -0.49459684E-09 -0.42957868E-09 -0.36311088E-09 -0.29563578E-09
 -0.22759347E-09 -0.15941912E-09 -0.91540379E-10 -0.24374909E-10  0.41672043E-10
  0.10620989E-09  0.16886483E-09  0.22928187E-09  0.28712661E-09  0.34208696E-09
  0.39387462E-09  0.44222643E-09  0.48690549E-09  0.52770215E-09  0.56443481E-09
  0.59695046E-09  0.62512514E-09  0.64886412E-09  0.66810198E-09  0.68280242E-09
  0.69295797E-09  0.69858952E-09  0.69974559E-09  0.69650159E-09  0.68895883E-09
  0.67724340E-09  0.66150496E-09  0.64191535E-09  0.61866715E-09  0.59197209E-09
  0.56205941E-09  0.52917408E-09  0.49357506E-09  0.45553340E-09  0.41533037E-09
  0.37325551E-09  0.32960471E-09  0.28467830E-09  0.23877904E-09  0.19221027E-09
  0.14527401E-09  0.98269090E-10  0.51489414E-10  0.52221955E-11 -0.40253680E-10
 -0.84669230E-10 -0.12776686E-09 -0.16930174E-09 -0.20904311E-09 -0.24677542E-09
 -0.28229942E-09 -0.31543307E-09 -0.34601241E-09 -0.37389217E-09 -0.39894643E-09
 -0.42106896E-09 -0.44017359E-09 -0.45619440E-09 -0.46908570E-09 -0.47882202E-09
 -0.48539788E-09 -0.48882748E-09 -0.48914430E-09 -0.48640049E-09 -0.48066626E-09
 -0.47202916E-09 -0.46059318E-09 -0.44647785E-09 -0.42981725E-09 -0.41075890E-09
 -0.38946263E-09 -0.36609939E-09 -0.34084996E-09 -0.31390374E-09 -0.28545737E-09
 -0.25571340E-09 -0.22487897E-09 -0.19316443E-09 -0.16078199E-09 -0.12794436E-09
 -0.94863484E-10 -0.61749180E-10 -0.28807920E-10  0.37583950E-11  0.35753608E-10
  0.66988414E-10  0.97281416E-10  0.12646011E-09  0.15436179E-09  0.18083442E-09
  0.20573732E-09  0.22894195E-09  0.25033240E-09  0.26980594E-09  0.28727344E-09
  0.30265967E-09  0.31590354E-09  0.32695826E-09  0.33579134E-09  0.34238463E-09
  0.34673411E-09  0.34884976E-09  0.34875519E-09  0.34648733E-09  0.34209596E-09
  0.33564318E-09  0.32720284E-09  0.31685988E-09  0.30470964E-09  0.29085708E-09
  0.27541600E-09  0.25850815E-09  0.24026241E-09  0.22081383E-09  0.20030272E-09
  0.17887369E-09  0.15667468E-09  0.13385602E-09  0.11056943E-09  0.86967102E-10
  0.63200706E-10  0.39420500E-10  0.15774409E-10 -0.75928455E-11 -0.30540588E-10
 -0.52932990E-10 -0.74639834E-10 -0.95537223E-10 -0.11550825E-09 -0.13444359E-09
 -0.15224208E-09 -0.16881120E-09 -0.18406749E-09 -0.19793697E-09 -0.21035537E-09
 -0.22126845E-09 -0.23063213E-09 -0.23841261E-09 -0.24458642E-09 -0.24914042E-09
 -0.25207166E-09 -0.25338733E-09 -0.25310446E-09 -0.25124973E-09 -0.24785913E-09
 -0.24297759E-09 -0.23665855E-09 -0.22896355E-09 -0.21996165E-09 -0.20972896E-09
 -0.19834799E-09 -0.18590711E-09 -0.17249986E-09 -0.15822434E-09 -0.14318250E-09
 -0.12747944E-09 -0.11122277E-09 -0.94521848E-10 -0.77487123E-10 -0.60229406E-10
 -0.42859194E-10 -0.25485995E-10 -0.82176645E-11  0.88402350E-11  0.25585048E-10
  0.41917617E-10  0.57742838E-10  0.72970188E-10  0.87514213E-10  0.10129498E-09
  0.11423848E-09  0.12627700E-09  0.13734945E-09  0.14740163E-09  0.15638647E-09
  0.16426420E-09  0.17100250E-09  0.17657659E-09  0.18096924E-09  0.18417081E-09
  0.18617915E-09  0.18699952E-09  0.18664448E-09  0.18513364E-09  0.18249347E-09
  0.17875707E-09  0.17396378E-09  0.16815892E-09  0.16139340E-09  0.15372331E-09
  0.14520951E-09  0.13591718E-09  0.12591537E-09  0.11527650E-09  0.10407585E-09
  0.92391088E-10  0.80301741E-10  0.67888669E-10  0.55233560E-10  0.42418406E-10
  0.29524994E-10  0.16634409E-10  0.38265403E-11 -0.88203924E-11 -0.21230298E-10
 -0.33329650E-10 -0.45047906E-10 -0.56317898E-10 -0.67076196E-10 -0.77263447E-10
 -0.86824685E-10 -0.95709600E-10 -0.10387279E-09 -0.11127396E-09 -0.11787810E-09
 -0.12365565E-09 -0.12858255E-09 -0.13264036E-09 -0.13581628E-09 -0.13810314E-09
 -0.13949935E-09 -0.14000889E-09 -0.13964112E-09 -0.13841072E-09 -0.13633749E-09
 -0.13344614E-09 -0.12976613E-09 -0.12533134E-09 -0.12017986E-09 -0.11435366E-09
 -0.10789832E-09 -0.10086264E-09 -0.93298335E-10 -0.85259668E-10 -0.76803070E-10
 -0.67986770E-10 -0.58870408E-10 -0.49514648E-10 -0.39980790E-10 -0.30330383E-10
 -0.20624842E-10 -0.10925071E-10 -0.12910964E-11  0.82182941E-11  0.17545894E-10
  0.26636410E-10  0.35436776E-10  0.43896450E-10  0.51967692E-10  0.59605816E-10
  0.66769429E-10  0.73420634E-10  0.79525223E-10  0.85052833E-10  0.89977082E-10
  0.94275675E-10  0.97930489E-10  0.10092763E-09  0.10325744E-09  0.10491454E-09
  0.10589778E-09  0.10621016E-09  0.10585882E-09  0.10485488E-09  0.10321336E-09
  0.10095301E-09  0.98096159E-10  0.94668503E-10  0.90698935E-10  0.86219307E-10
  0.81264192E-10  0.75870640E-10  0.70077914E-10  0.63927218E-10  0.57461418E-10
  0.50724756E-10  0.43762557E-10  0.36620936E-10  0.29346505E-10  0.21986076E-10
  0.14586372E-10  0.71937408E-11 -0.14612934E-12 -0.73884789E-11 -0.14489742E-10
 -0.21407800E-10 -0.28102221E-10 -0.34534487E-10 -0.40668206E-10 -0.46469308E-10
 -0.51906227E-10 -0.56950059E-10 -0.61574707E-10 -0.65757007E-10 -0.69476828E-10
 -0.72717160E-10 -0.75464178E-10 -0.77707282E-10 -0.79439127E-10 -0.80655618E-10
 -0.81355900E-10 -0.81542315E-10 -0.81220352E-10 -0.80398568E-10 -0.79088499E-10
 -0.77304545E-10 -0.75063851E-10 -0.72386161E-10 -0.69293665E-10 -0.65810830E-10
 -0.61964221E-10 -0.57782307E-10 -0.53295266E-10 -0.48534773E-10 -0.43533788E-10
 -0.38326335E-10 -0.32947280E-10 -0.27432104E-10 -0.21816677E-10 -0.16137033E-10
 -0.10429142E-10 -0.47286959E-11  0.92911439E-12  0.65098064E-11  0.11979810E-10
  0.17306664E-10  0.22459200E-10  0.27407719E-10  0.32124159E-10  0.36582242E-10
  0.40757616E-10  0.44627983E-10  0.48173207E-10  0.51375414E-10  0.54219069E-10
  0.56691051E-10  0.58780693E-10  0.60479828E-10  0.61782797E-10  0.62686464E-10
  0.63190192E-10  0.63295828E-10  0.63007651E-10  0.62332319E-10  0.61278801E-10
  0.59858287E-10  0.58084100E-10  0.55971578E-10  0.53537961E-10  0.50802260E-10
  0.47785118E-10  0.44508660E-10  0.40996341E-10  0.37272787E-10  0.33363624E-10
  0.29295311E-10  0.25094965E-10  0.20790190E-10  0.16408894E-10  0.11979119E-10
  0.75288631E-11  0.30859122E-11 -0.13223326E-11 -0.56690173E-11 -0.99279937E-11
 -0.14073973E-10 -0.18082669E-10 -0.21930939E-10 -0.25596911E-10 -0.29060100E-10
 -0.32301523E-10 -0.35303796E-10 -0.38051217E-10 -0.40529851E-10 -0.42727588E-10
 -0.44634198E-10 -0.46241372E-10 -0.47542749E-10 -0.48533931E-10 -0.49212492E-10
 kinetic energy density (partial)
  0.17290945E+01  0.17285841E+01  0.17270538E+01  0.17245059E+01  0.17209446E+01
  0.17163755E+01  0.17108057E+01  0.17042442E+01  0.16967013E+01  0.16881888E+01
  0.16787202E+01  0.16683103E+01  0.16569753E+01  0.16447329E+01  0.16316023E+01
  0.16176036E+01  0.16027584E+01  0.15870895E+01  0.15706209E+01  0.15533776E+01
  0.15353856E+01  0.15166720E+01  0.14972647E+01  0.14771925E+01  0.14564850E+01
  0.14351725E+01  0.14132859E+01  0.13908568E+01  0.13679172E+01  0.13444995E+01
  0.13206367E+01  0.12963618E+01  0.12717083E+01  0.12467096E+01  0.12213994E+01
  0.11958113E+01  0.11699789E+01  0.11439355E+01  0.11177147E+01  0.10913492E+01
  0.10648719E+01  0.10383150E+01  0.10117105E+01  0.98508985E+00  0.95848380E+00
  0.93192264E+00  0.90543598E+00  0.87905269E+00  0.85280094E+00  0.82670808E+00
  0.80080062E+00  0.77510421E+00  0.74964360E+00  0.72444257E+00  0.69952396E+00
  0.67490961E+00  0.65062032E+00  0.62667587E+00  0.60309497E+00  0.57989526E+00
  0.55709331E+00  0.53470458E+00  0.51274343E+00  0.49122312E+00  0.47015583E+00
  0.44955260E+00  0.42942340E+00  0.40977711E+00  0.39062154E+00  0.37196342E+00
  0.35380843E+00  0.33616124E+00  0.31902548E+00  0.30240381E+00  0.28629791E+00
  0.27070852E+00  0.25563546E+00  0.24107766E+00  0.22703319E+00  0.21349931E+00
  0.20047246E+00  0.18794833E+00  0.17592189E+00  0.16438738E+00  0.15333844E+00
  0.14276803E+00  0.13266856E+00  0.12303189E+00  0.11384935E+00  0.10511182E+00
  0.96809732E-01  0.88933116E-01  0.81471646E-01  0.74414669E-01  0.67751243E-01
  0.61470175E-01  0.55560051E-01  0.50009275E-01  0.44806100E-01  0.39938664E-01
  0.35395019E-01  0.31163163E-01  0.27231070E-01  0.23586720E-01  0.20218126E-01
  0.17113360E-01  0.14260579E-01  0.11648050E-01  0.92641732E-02  0.70975013E-02
  0.51367625E-02  0.33708785E-02  0.17889825E-02  0.38043563E-03 -0.86515782E-03
 -0.19579367E-02 -0.29077704E-02 -0.37242477E-02 -0.44166664E-02 -0.49940254E-02
 -0.54650164E-02 -0.58380181E-02 -0.61210912E-02 -0.63219740E-02 -0.64480800E-02
 -0.65064958E-02 -0.65039806E-02 -0.64469664E-02 -0.63415589E-02 -0.61935402E-02
 -0.60083709E-02 -0.57911949E-02 -0.55468428E-02 -0.52798380E-02 -0.49944022E-02
 -0.46944620E-02 -0.43836558E-02 -0.40653416E-02 -0.37426050E-02 -0.34182677E-02
 -0.30948962E-02 -0.27748111E-02 -0.24600964E-02 -0.21526095E-02 -0.18539907E-02
 -0.15656736E-02 -0.12888947E-02 -0.10247041E-02 -0.77397550E-03 -0.53741650E-03
 -0.31557862E-03 -0.10886752E-03  0.82447043E-04  0.25822137E-03  0.41842813E-03
  0.56314687E-03  0.69255474E-03  0.80691741E-03  0.90658036E-03  0.99196028E-03
  0.10635369E-02  0.11218452E-02  0.11674673E-02  0.12010261E-02  0.12231773E-02
  0.12346038E-02  0.12360086E-02  0.12281095E-02  0.12116334E-02  0.11873111E-02
  0.11558726E-02  0.11180424E-02  0.10745357E-02  0.10260544E-02  0.97328406E-03
  0.91689032E-03  0.85751654E-03  0.79578123E-03  0.73227598E-03  0.66756361E-03
  0.60217667E-03  0.53661621E-03  0.47135077E-03  0.40681566E-03  0.34341249E-03
  0.28150893E-03  0.22143862E-03  0.16350134E-03  0.10796340E-03  0.55058077E-04
  0.49863744E-05 -0.42082215E-04 -0.86008735E-04 -0.12668369E-03 -0.16402589E-03
 -0.19798115E-03 -0.22852096E-03 -0.25564108E-03 -0.27936004E-03 -0.29971764E-03
 -0.31677343E-03 -0.33060506E-03 -0.34130679E-03 -0.34898784E-03 -0.35377084E-03
 -0.35579025E-03 -0.35519081E-03 -0.35212606E-03 -0.34675681E-03 -0.33924978E-03
 -0.32977611E-03 -0.31851015E-03 -0.30562807E-03 -0.29130672E-03 -0.27572246E-03
 -0.25905007E-03 -0.24146177E-03 -0.22312623E-03 -0.20420776E-03 -0.18486548E-03
 -0.16525264E-03 -0.14551595E-03 -0.12579501E-03 -0.10622186E-03 -0.86920500E-04
 -0.68006593E-04 -0.49587153E-04 -0.31760344E-04 -0.14615332E-04  0.17678089E-05
  0.17318114E-04  0.31973702E-04  0.45681696E-04  0.58398081E-04  0.70087534E-04
  0.80723191E-04  0.90286392E-04  0.98766377E-04  0.10615995E-03  0.11247114E-03
  0.11771077E-03  0.12189609E-03  0.12505034E-03  0.12720230E-03  0.12838584E-03
  0.12863943E-03  0.12800575E-03  0.12653111E-03  0.12426509E-03  0.12125998E-03
  0.11757039E-03  0.11325275E-03  0.10836489E-03  0.10296562E-03  0.97114283E-04
  0.90870380E-04  0.84293186E-04  0.77441386E-04  0.70372734E-04  0.63143731E-04
  0.55809335E-04  0.48422678E-04  0.41034823E-04  0.33694534E-04  0.26448077E-04
  0.19339039E-04  0.12408178E-04  0.56932949E-05 -0.77087546E-06 -0.69527418E-05
 -0.12823917E-04 -0.18359254E-04 -0.23536861E-04 -0.28338097E-04 -0.32747544E-04
 -0.36752966E-04 -0.40345248E-04 -0.43518314E-04 -0.46269040E-04 -0.48597144E-04
 -0.50505065E-04 -0.51997834E-04 -0.53082933E-04 -0.53770142E-04 -0.54071382E-04
 -0.54000551E-04 -0.53573354E-04 -0.52807130E-04 -0.51720672E-04 -0.50334054E-04
 -0.48668448E-04 -0.46745951E-04 -0.44589403E-04 -0.42222219E-04 -0.39668216E-04
 -0.36951446E-04 -0.34096041E-04 -0.31126054E-04 -0.28065313E-04 -0.24937283E-04
 -0.21764930E-04 -0.18570599E-04 -0.15375898E-04 -0.12201594E-04 -0.90675122E-05
 -0.59924521E-05 -0.29941086E-05 -0.89004708E-07  0.27075669E-05  0.53815916E-05
  0.79203713E-05  0.10312553E-04  0.12548149E-04  0.14618547E-04  0.16516511E-04
  0.18236175E-04  0.19773027E-04  0.21123889E-04  0.22286883E-04  0.23261395E-04
  0.24048036E-04  0.24648585E-04  0.25065940E-04  0.25304059E-04  0.25367891E-04
  0.25263316E-04  0.24997066E-04  0.24576658E-04  0.24010318E-04  0.23306901E-04
  0.22475813E-04  0.21526935E-04  0.20470544E-04  0.19317232E-04  0.18077830E-04
  0.16763333E-04  0.15384825E-04  0.13953405E-04  0.12480118E-04  0.10975890E-04
  0.94514623E-05  0.79173292E-05  0.63836844E-05  0.48603660E-05  0.33568078E-05
  0.18819945E-05  0.44442122E-06 -0.94794305E-06 -0.22876867E-05 -0.35679827E-05
 -0.47826115E-05 -0.59259791E-05 -0.69931304E-05 -0.79797590E-05 -0.88822118E-05
 -0.96974899E-05 -0.10423246E-04 -0.11057775E-04 -0.11600007E-04 -0.12049490E-04
 -0.12406372E-04 -0.12671383E-04 -0.12845808E-04 -0.12931464E-04 -0.12930666E-04
 -0.12846204E-04 -0.12681303E-04 -0.12439594E-04 -0.12125074E-04 -0.11742072E-04
 -0.11295210E-04 -0.10789365E-04 -0.10229634E-04 -0.96212866E-05 -0.89697364E-05
 -0.82804965E-05 -0.75591441E-05 -0.68112837E-05 -0.60425111E-05 -0.52583789E-05
 -0.44643633E-05 -0.36658324E-05 -0.28680161E-05 -0.20759781E-05 -0.12945892E-05
 -0.52850323E-06  0.21786533E-06  0.94036142E-06  0.16351073E-05  0.22985180E-05
  0.29273150E-05  0.35185369E-05  0.40695486E-05  0.45780474E-05  0.50420674E-05
  0.54599817E-05  0.58305021E-05  0.61526771E-05  0.64258876E-05  0.66498407E-05
  0.68245623E-05  0.69503868E-05  0.70279463E-05  0.70581577E-05  0.70422087E-05
  0.69815423E-05  0.68778402E-05  0.67330060E-05  0.65491459E-05  0.63285507E-05
  0.60736753E-05  0.57871193E-05  0.54716065E-05  0.51299641E-05  0.47651028E-05
  0.43799954E-05  0.39776574E-05  0.35611266E-05  0.31334436E-05  0.26976331E-05
  0.22566851E-05  0.18135380E-05  0.13710609E-05  0.93203865E-06  0.49915625E-06
  0.74985325E-07 -0.33802878E-06 -0.73757865E-06 -0.11215053E-05 -0.14878073E-05
 -0.18346492E-05 -0.21603680E-05 -0.24634786E-05 -0.27426786E-05 -0.29968511E-05
 -0.32250662E-05 -0.34265825E-05 -0.36008456E-05 -0.37474871E-05 -0.38663216E-05
 -0.39573430E-05 -0.40207195E-05 -0.40567879E-05 -0.40660473E-05 -0.40491511E-05
 -0.40068991E-05 -0.39402288E-05 -0.38502054E-05 -0.37380125E-05 -0.36049409E-05
 -0.34523780E-05 -0.32817970E-05 -0.30947450E-05 -0.28928317E-05 -0.26777177E-05
 -0.24511028E-05 -0.22147146E-05 -0.19702971E-05 -0.17195990E-05 -0.14643635E-05
 -0.12063167E-05 -0.94715827E-06 -0.68855088E-06 -0.43211123E-06 -0.17940104E-06
  0.68081116E-07  0.30890758E-06  0.54172860E-06  0.76527871E-06  0.97838245E-06
  0.11799594E-05  0.13690283E-05  0.15447109E-05  0.17062346E-05  0.18529347E-05
  0.19842557E-05  0.20997520E-05  0.21990881E-05  0.22820378E-05  0.23484827E-05
  0.23984106E-05  0.24319128E-05  0.24491808E-05  0.24505029E-05  0.24362600E-05
  0.24069207E-05  0.23630364E-05  0.23052360E-05  0.22342201E-05  0.21507544E-05
  0.20556642E-05  0.19498271E-05  0.18341667E-05  0.17096457E-05  0.15772589E-05
  0.14380262E-05  0.12929862E-05  0.11431884E-05  0.98968723E-06  0.83353514E-06
  0.67577604E-06  0.51743909E-06  0.35953275E-06  0.20303893E-06  0.48907611E-07
 -0.10194834E-06 -0.24865792E-06 -0.39039639E-06 -0.52638931E-06 -0.65591616E-06
 -0.77831353E-06 -0.89297790E-06 -0.99936796E-06 -0.10970065E-05 -0.11854821E-05
 -0.12644496E-05 -0.13336314E-05 -0.13928171E-05 -0.14418636E-05 -0.14806940E-05
 -0.15092972E-05 -0.15277257E-05 -0.15360945E-05 -0.15345786E-05 -0.15234106E-05
 -0.15028780E-05 -0.14733201E-05 -0.14351249E-05 -0.13887253E-05 -0.13345958E-05
 -0.12732482E-05 -0.12052279E-05 -0.11311098E-05 -0.10514937E-05 -0.96700051E-06
 -0.87826762E-06 -0.78594470E-06 -0.69068939E-06 -0.59316308E-06 -0.49402668E-06
 -0.39393660E-06 -0.29354074E-06 -0.19347471E-06 -0.94358142E-07  0.32087999E-08
  0.98648681E-07  0.19140989E-06  0.28096947E-06  0.36683575E-06  0.44855070E-06
  0.52569203E-06  0.59787503E-06  0.66475412E-06  0.72602419E-06  0.78142156E-06
  0.83072474E-06  0.87375493E-06  0.91037615E-06  0.94049521E-06  0.96406135E-06
  0.98106565E-06  0.99154022E-06  0.99555710E-06  0.99322697E-06  0.98469768E-06
  0.97015251E-06  0.94980830E-06  0.92391344E-06  0.89274560E-06  0.85660946E-06
  0.81583425E-06  0.77077117E-06  0.72179077E-06  0.66928031E-06  0.61364093E-06
  0.55528494E-06  0.49463302E-06  0.43211147E-06  0.36814942E-06  0.30317614E-06
  0.23761838E-06  0.17189779E-06  0.10642840E-06  0.41614252E-07 -0.22152940E-07
 -0.84495926E-07 -0.14505397E-06 -0.20348474E-06 -0.25946606E-06 -0.31269748E-06
 -0.36290169E-06 -0.40982579E-06 -0.45324233E-06 -0.49295024E-06 -0.52877551E-06
 -0.56057173E-06 -0.58822046E-06 -0.61163137E-06 -0.63074227E-06 -0.64551892E-06
 -0.65595468E-06 -0.66207001E-06 -0.66391180E-06 -0.66155257E-06 -0.65508948E-06
 -0.64464331E-06 -0.63035716E-06 -0.61239522E-06 -0.59094126E-06 -0.56619716E-06
 -0.53838129E-06 -0.50772685E-06 -0.47448011E-06 -0.43889869E-06 -0.40124968E-06
 -0.36180785E-06 -0.32085380E-06 -0.27867210E-06 -0.23554945E-06 -0.19177290E-06
 -0.14762803E-06 -0.10339723E-06 -0.59358035E-07 -0.15781477E-07  0.27069454E-07
  0.68941283E-07  0.10959143E-06  0.14878951E-06  0.18631852E-06  0.22197590E-06
  0.25557458E-06  0.28694375E-06  0.31592969E-06  0.34239634E-06  0.36622584E-06
  0.38731891E-06  0.40559510E-06  0.42099294E-06  0.43346998E-06  0.44300268E-06
  0.44958621E-06  0.45323413E-06  0.45397795E-06  0.45186662E-06  0.44696592E-06
  0.43935768E-06  0.42913907E-06  0.41642161E-06  0.40133032E-06  0.38400262E-06
  0.36458730E-06  0.34324338E-06  0.32013892E-06  0.29544987E-06  0.26935876E-06
  0.24205353E-06  0.21372623E-06  0.18457177E-06  0.15478664E-06  0.12456772E-06
  0.94111017E-07  0.63610470E-07  0.33256812E-07  0.32364356E-08 -0.26269679E-07
 -0.55086980E-07 -0.83048311E-07 -0.10999481E-06 -0.13577673E-06 -0.16025422E-06
 -0.18329801E-06 -0.20479000E-06 -0.22462382E-06 -0.24270524E-06 -0.25895259E-06
 -0.27329699E-06 -0.28568257E-06 -0.29606660E-06 -0.30441950E-06 -0.31072480E-06
 -0.31497903E-06 -0.31719146E-06 -0.31738388E-06 -0.31559021E-06 -0.31185610E-06
 -0.30623842E-06 -0.29880474E-06 -0.28963270E-06 -0.27880938E-06 -0.26643058E-06
 -0.25260010E-06 -0.23742893E-06 -0.22103446E-06 -0.20353965E-06 -0.18507217E-06
 -0.16576352E-06 -0.14574817E-06 -0.12516265E-06 -0.10414472E-06 -0.82832453E-07
 -0.61363399E-07 -0.39873743E-07 -0.18497485E-07  0.26343491E-08  0.23394466E-07
  0.43660027E-07  0.63313332E-07  0.82242455E-07  0.10034184E-06  0.11751286E-06
  0.13366427E-06  0.14871269E-06  0.16258297E-06  0.17520849E-06  0.18653148E-06
  0.19650319E-06  0.20508406E-06  0.21224378E-06  0.21796138E-06  0.22222513E-06
  0.22503254E-06  0.22639016E-06  0.22631341E-06  0.22482634E-06  0.22196135E-06
  0.21775882E-06  0.21226678E-06  0.20554044E-06  0.19764175E-06  0.18863890E-06
  0.17860583E-06  0.16762163E-06  0.15577001E-06  0.14313867E-06  0.12981872E-06
  0.11590408E-06  0.10149079E-06  0.86676465E-07  0.71559597E-07  0.56238975E-07
  0.40813056E-07  0.25379365E-07  0.10033908E-07 -0.51293959E-08 -0.20019260E-07
 -0.34547551E-07 -0.48629785E-07 -0.62185585E-07 -0.75139115E-07 -0.87419477E-07
 -0.98961065E-07 -0.10970389E-06 -0.11959386E-06 -0.12858301E-06 -0.13662972E-06
 -0.14369885E-06 -0.14976189E-06 -0.15479699E-06 -0.15878899E-06 -0.16172945E-06
 -0.16361657E-06 -0.16445508E-06 -0.16425614E-06 -0.16303716E-06 -0.16082158E-06
 -0.15763866E-06 -0.15352316E-06 -0.14851511E-06 -0.14265942E-06 -0.13600555E-06
 -0.12860714E-06 -0.12052161E-06 -0.11180973E-06 -0.10253523E-06 -0.92764326E-07
 -0.82565291E-07 -0.72007998E-07 -0.61163465E-07 -0.50103397E-07 -0.38899736E-07
 -0.27624215E-07 -0.16347912E-07 -0.51408281E-08  0.59285300E-08  0.16793551E-07
  0.27389898E-07  0.37655876E-07  0.47532767E-07  0.56965148E-07  0.65901187E-07
  0.74292904E-07  0.82096410E-07  0.89272116E-07  0.95784914E-07  0.10160432E-06
  0.10670461E-06  0.11106488E-06  0.11466912E-06  0.11750624E-06  0.11957006E-06
  0.12085928E-06  0.12137740E-06  0.12113265E-06  0.12013786E-06  0.11841029E-06
  0.11597150E-06  0.11284710E-06  0.10906660E-06  0.10466311E-06  0.99673114E-07
  0.94136174E-07  0.88094665E-07  0.81593458E-07  0.74679606E-07  0.67402029E-07
  0.59811178E-07  0.51958703E-07  0.43897120E-07  0.35679472E-07  0.27358994E-07
  0.18988783E-07  0.10621471E-07  0.23089097E-08 -0.58981411E-08 -0.13950308E-07
 -0.21799890E-07 -0.29401128E-07 -0.36710458E-07 -0.43686751E-07 -0.50291527E-07
 -0.56489158E-07 -0.62247046E-07 -0.67535779E-07 -0.72329266E-07 -0.76604856E-07
 -0.80343419E-07 -0.83529424E-07 -0.86150974E-07 -0.88199833E-07 -0.89671426E-07
 -0.90564808E-07 -0.90882626E-07 -0.90631048E-07 -0.89819673E-07 -0.88461429E-07
 -0.86572440E-07 -0.84171886E-07 -0.81281839E-07 -0.77927087E-07 -0.74134942E-07
 -0.69935039E-07 -0.65359115E-07 -0.60440792E-07 -0.55215334E-07 -0.49719414E-07
 -0.43990863E-07 -0.38068426E-07 -0.31991503E-07 -0.25799905E-07 -0.19533596E-07
 -0.13232449E-07 -0.69359987E-08 -0.68320373E-09  0.54877859E-08  0.11539853E-07
  0.17437127E-07  0.23145190E-07  0.28631266E-07  0.33864403E-07  0.38815637E-07
  0.43458145E-07  0.47767378E-07  0.51721185E-07  0.55299914E-07  0.58486500E-07
  0.61266536E-07  0.63628321E-07  0.65562902E-07  0.67064087E-07  0.68128445E-07
  0.68755296E-07  0.68946669E-07  0.68707259E-07  0.68044361E-07  0.66967788E-07
  0.65489777E-07  0.63624882E-07  0.61389851E-07  0.58803498E-07  0.55886551E-07
  0.52661507E-07  0.49152464E-07  0.45384953E-07  0.41385761E-07  0.37182750E-07
  0.32804668E-07  0.28280964E-07  0.23641595E-07  0.18916832E-07  0.14137075E-07
  0.93326598E-08  0.45336709E-08 -0.23023726E-09 -0.49300196E-08 -0.95374107E-08
 -0.14025089E-07 -0.18366833E-07 -0.22537668E-07 -0.26514004E-07 -0.30273762E-07
 -0.33796492E-07 -0.37063475E-07 -0.40057820E-07 -0.42764539E-07 -0.45170619E-07
 -0.47265073E-07 -0.49038985E-07 -0.50485532E-07 -0.51600007E-07 -0.52379812E-07
 -0.52824453E-07 -0.52935514E-07 -0.52716616E-07 -0.52173376E-07 -0.51313339E-07
 -0.50145914E-07 -0.48682284E-07 -0.46935321E-07 -0.44919479E-07 -0.42650690E-07
 -0.40146243E-07 -0.37424662E-07 -0.34505576E-07 -0.31409580E-07 -0.28158102E-07
 -0.24773254E-07 -0.21277693E-07 -0.17694470E-07 -0.14046882E-07 -0.10358331E-07
 -0.66521720E-08 -0.29515738E-08  0.72062322E-09  0.43420435E-08  0.78909080E-08
  0.11346161E-07  0.14687592E-07  0.17895946E-07  0.20953036E-07  0.23841836E-07
  0.26546574E-07  0.29052813E-07  0.31347525E-07  0.33419149E-07  0.35257650E-07
  0.36854555E-07  0.38202994E-07  0.39297713E-07  0.40135093E-07  0.40713149E-07
  0.41031524E-07  0.41091468E-07  0.40895811E-07  0.40448931E-07  0.39756698E-07
  0.38826428E-07  0.37666817E-07  0.36287869E-07  0.34700821E-07  0.32918055E-07
  0.30953010E-07  0.28820087E-07  0.26534545E-07  0.24112399E-07  0.21570312E-07
  0.18925484E-07  0.16195537E-07  0.13398406E-07  0.10552219E-07  0.76751892E-08
  0.47854954E-08  0.19011747E-08 -0.95998873E-09 -0.37805697E-08 -0.65436053E-08
 -0.92326938E-08 -0.11832089E-07 -0.14326788E-07 -0.16702618E-07 -0.18946310E-07
 -0.21045572E-07 -0.22989151E-07 -0.24766892E-07 -0.26369787E-07 -0.27790014E-07
 -0.29020975E-07 -0.30057320E-07 -0.30894962E-07 -0.31531094E-07 -0.31964184E-07
 Kinetic energy density valence
  0.18956303E+03  0.18932861E+03  0.18862781E+03  0.18746800E+03  0.18586123E+03
  0.18382392E+03  0.18137647E+03  0.17854271E+03  0.17534940E+03  0.17182563E+03
  0.16800222E+03  0.16391115E+03  0.15958498E+03  0.15505642E+03  0.15035780E+03
  0.14552074E+03  0.14057575E+03  0.13555205E+03  0.13047728E+03  0.12537737E+03
  0.12027645E+03  0.11519674E+03  0.11015855E+03  0.10518026E+03  0.10027837E+03
  0.95467491E+02  0.90760487E+02  0.86168486E+02  0.81700992E+02  0.77365972E+02
  0.73169952E+02  0.69118115E+02  0.65214402E+02  0.61461610E+02  0.57861489E+02
  0.54414836E+02  0.51121591E+02  0.47980919E+02  0.44991297E+02  0.42150595E+02
  0.39456147E+02  0.36904825E+02  0.34493103E+02  0.32217120E+02  0.30072734E+02
  0.28055575E+02  0.26161094E+02  0.24384605E+02  0.22721327E+02  0.21166416E+02
  0.19715001E+02  0.18362210E+02  0.17103200E+02  0.15933173E+02  0.14847403E+02
  0.13841246E+02  0.12910164E+02  0.12049729E+02  0.11255639E+02  0.10523725E+02
  0.98499598E+01  0.92304621E+01  0.86615017E+01  0.81395024E+01  0.76610443E+01
  0.72228646E+01  0.68218576E+01  0.64550743E+01  0.61197208E+01  0.58131565E+01
  0.55328915E+01  0.52765834E+01  0.50420339E+01  0.48271856E+01  0.46301170E+01
  0.44490390E+01  0.42822900E+01  0.41283312E+01  0.39857421E+01  0.38532154E+01
  0.37295520E+01  0.36136562E+01  0.35045305E+01  0.34012710E+01  0.33030619E+01
  0.32091710E+01  0.31189450E+01  0.30318040E+01  0.29472379E+01  0.28648008E+01
  0.27841074E+01  0.27048279E+01  0.26266844E+01  0.25494467E+01  0.24729280E+01
  0.23969815E+01  0.23214968E+01  0.22463958E+01  0.21716302E+01  0.20971778E+01
  0.20230395E+01  0.19492365E+01  0.18758077E+01  0.18028069E+01  0.17303006E+01
  0.16583656E+01  0.15870871E+01  0.15165562E+01  0.14468689E+01  0.13781238E+01
  0.13104208E+01  0.12438598E+01  0.11785391E+01  0.11145547E+01  0.10519989E+01
  0.99095983E+00  0.93152016E+00  0.87375686E+00  0.81774043E+00  0.76353450E+00
  0.71119544E+00  0.66077207E+00  0.61230549E+00  0.56582896E+00  0.52136783E+00
  0.47893957E+00  0.43855388E+00  0.40021280E+00  0.36391092E+00  0.32963565E+00
  0.29736742E+00  0.26708010E+00  0.23874130E+00  0.21231275E+00  0.18775072E+00
  0.16500644E+00  0.14402653E+00  0.12475348E+00  0.10712605E+00  0.91079783E-01
  0.76547449E-01  0.63459491E-01  0.51744486E-01  0.41329590E-01  0.32140965E-01
  0.24104200E-01  0.17144712E-01  0.11188134E-01  0.61606790E-02  0.19894863E-02
 -0.13970542E-02 -0.40690004E-02 -0.60945808E-02 -0.75399410E-02 -0.84689146E-02
 -0.89428193E-02 -0.90202783E-02 -0.87570663E-02 -0.82059799E-02 -0.74167328E-02
 -0.64358750E-02 -0.53067343E-02 -0.40693810E-02 -0.27606138E-02 -0.14139663E-02
 -0.59732923E-04  0.12749867E-02  0.25662260E-02  0.37930741E-02  0.49375832E-02
  0.59846637E-02  0.69219660E-02  0.77397528E-02  0.84307611E-02  0.89900574E-02
  0.94148853E-02  0.97045087E-02  0.98600503E-02  0.98843280E-02  0.97816898E-02
  0.95578480E-02  0.92197147E-02  0.87752391E-02  0.82332476E-02  0.76032878E-02
  0.68954772E-02  0.61203576E-02  0.52887553E-02  0.44116486E-02  0.35000428E-02
  0.25648522E-02  0.16167919E-02  0.66627706E-03 -0.27666849E-03 -0.12024944E-02
 -0.21021967E-02 -0.29673819E-02 -0.37903215E-02 -0.45639967E-02 -0.52821359E-02
 -0.59392412E-02 -0.65306079E-02 -0.70523353E-02 -0.75013295E-02 -0.78752987E-02
 -0.81727417E-02 -0.83929296E-02 -0.85358812E-02 -0.86023334E-02 -0.85937059E-02
 -0.85120617E-02 -0.83600635E-02 -0.81409266E-02 -0.78583693E-02 -0.75165605E-02
 -0.71200657E-02 -0.66737920E-02 -0.61829321E-02 -0.56529079E-02 -0.50893150E-02
 -0.44978672E-02 -0.38843425E-02 -0.32545309E-02 -0.26141834E-02 -0.19689639E-02
 -0.13244036E-02 -0.68585786E-03 -0.58466483E-04  0.55288268E-03  0.11435869E-02
  0.17093577E-02  0.22462471E-02  0.27506689E-02  0.32194172E-02  0.36496805E-02
  0.40390523E-02  0.43855377E-02  0.46875566E-02  0.49439432E-02  0.51539420E-02
  0.53172007E-02  0.54337604E-02  0.55040418E-02  0.55288298E-02  0.55092555E-02
  0.54467752E-02  0.53431483E-02  0.52004134E-02  0.50208622E-02  0.48070129E-02
  0.45615828E-02  0.42874594E-02  0.39876715E-02  0.36653607E-02  0.33237519E-02
  0.29661247E-02  0.25957853E-02  0.22160392E-02  0.18301641E-02  0.14413849E-02
  0.10528495E-02  0.66760582E-03  0.28858065E-03 -0.81439835E-04 -0.43982785E-03
 -0.78412998E-03 -0.11120811E-02 -0.14216164E-02 -0.17108815E-02 -0.19782404E-02
 -0.22222814E-02 -0.24418212E-02 -0.26359069E-02 -0.28038162E-02 -0.29450557E-02
 -0.30593572E-02 -0.31466729E-02 -0.32071684E-02 -0.32412144E-02 -0.32493775E-02
 -0.32324088E-02 -0.31912325E-02 -0.31269324E-02 -0.30407388E-02 -0.29340132E-02
 -0.28082340E-02 -0.26649804E-02 -0.25059170E-02 -0.23327778E-02 -0.21473500E-02
 -0.19514585E-02 -0.17469500E-02 -0.15356778E-02 -0.13194870E-02 -0.11002002E-02
 -0.87960392E-03 -0.65943568E-03 -0.44137206E-03 -0.22701745E-03 -0.17893864E-04
  0.18456825E-03  0.37903817E-03  0.56429206E-03  0.73921888E-03  0.90282538E-03
  0.10542398E-02  0.11927148E-02  0.13176288E-02  0.14284865E-02  0.15249190E-02
  0.16066815E-02  0.16736517E-02  0.17258259E-02  0.17633154E-02  0.17863411E-02
  0.17952284E-02  0.17904005E-02  0.17723722E-02  0.17417420E-02  0.16991846E-02
  0.16454434E-02  0.15813212E-02  0.15076726E-02  0.14253950E-02  0.13354203E-02
  0.12387056E-02  0.11362258E-02  0.10289642E-02  0.91790529E-03  0.80402636E-03
  0.68829038E-03  0.57163886E-03  0.45498516E-03  0.33920842E-03  0.22514785E-03
  0.11359767E-03  0.53024740E-05 -0.99046685E-04 -0.19881575E-03 -0.29343046E-03
 -0.38237857E-03 -0.46521152E-03 -0.54154544E-03 -0.61106169E-03 -0.67350680E-03
 -0.72869186E-03 -0.77649147E-03 -0.81684215E-03 -0.84974037E-03 -0.87524013E-03
 -0.89345015E-03 -0.90453079E-03 -0.90869063E-03 -0.90618277E-03 -0.89730097E-03
 -0.88237559E-03 -0.86176940E-03 -0.83587329E-03 -0.80510191E-03 -0.76988939E-03
 -0.73068493E-03 -0.68794862E-03 -0.64214719E-03 -0.59375001E-03 -0.54322523E-03
 -0.49103597E-03 -0.43763694E-03 -0.38347108E-03 -0.32896655E-03 -0.27453398E-03
 -0.22056399E-03 -0.16742493E-03 -0.11546102E-03 -0.64990672E-04 -0.16305227E-04
  0.30332121E-04  0.74687049E-04  0.11655456E-03  0.15575917E-03  0.19215482E-03
  0.22562453E-03  0.25607983E-03  0.28346000E-03  0.30773102E-03  0.32888445E-03
  0.34693602E-03  0.36192419E-03  0.37390854E-03  0.38296802E-03  0.38919919E-03
  0.39271434E-03  0.39363962E-03  0.39211310E-03  0.38828287E-03  0.38230513E-03
  0.37434235E-03  0.36456146E-03  0.35313206E-03  0.34022484E-03  0.32600993E-03
  0.31065549E-03  0.29432635E-03  0.27718275E-03  0.25937929E-03  0.24106389E-03
  0.22237702E-03  0.20345095E-03  0.18440920E-03  0.16536611E-03  0.14642654E-03
  0.12768569E-03  0.10922905E-03  0.91132452E-04  0.73462244E-04  0.56275569E-04
  0.39620707E-04  0.23537521E-04  0.80579651E-05 -0.67933505E-05 -0.20998539E-04
 -0.34545784E-04 -0.47428656E-04 -0.59645414E-04 -0.71198299E-04 -0.82092833E-04
 -0.92337131E-04 -0.10194123E-03 -0.11091647E-03 -0.11927488E-03 -0.12702862E-03
 -0.13418951E-03 -0.14076856E-03 -0.14677559E-03 -0.15221894E-03 -0.15710517E-03
 -0.16143890E-03 -0.16522271E-03 -0.16845704E-03 -0.17114027E-03 -0.17326875E-03
 -0.17483696E-03 -0.17583774E-03 -0.17626247E-03 -0.17610145E-03 -0.17534418E-03
 -0.17397977E-03 -0.17199735E-03 -0.16938647E-03 -0.16613760E-03 -0.16224251E-03
 -0.15769480E-03 -0.15249030E-03 -0.14662752E-03 -0.14010810E-03 -0.13293713E-03
 -0.12512359E-03 -0.11668060E-03 -0.10762576E-03 -0.97981316E-04 -0.87774395E-04
 -0.77037091E-04 -0.65806537E-04 -0.54124908E-04 -0.42039361E-04 -0.29601914E-04
 -0.16869258E-04 -0.39025128E-05  0.92330800E-05  0.22468521E-04  0.35731474E-04
  0.48946733E-04  0.62036742E-04  0.74922156E-04  0.87522434E-04  0.99756474E-04
  0.11154326E-03  0.12280253E-03  0.13345548E-03  0.14342543E-03  0.15263854E-03
  0.16102446E-03  0.16851702E-03  0.17505484E-03  0.18058200E-03  0.18504855E-03
  0.18841109E-03  0.19063326E-03  0.19168614E-03  0.19154867E-03  0.19020794E-03
  0.18765946E-03  0.18390731E-03  0.17896430E-03  0.17285197E-03  0.16560055E-03
  0.15724890E-03  0.14784427E-03  0.13744205E-03  0.12610547E-03  0.11390517E-03
  0.10091876E-03  0.87230266E-04  0.72929549E-04  0.58111675E-04  0.42876216E-04
  0.27326516E-04  0.11568922E-04 -0.42880124E-05 -0.20134359E-04 -0.35859649E-04
 -0.51353727E-04 -0.66507604E-04 -0.81214302E-04 -0.95369693E-04 -0.10887331E-03
 -0.12162915E-03 -0.13354642E-03 -0.14454024E-03 -0.15453234E-03 -0.16345168E-03
 -0.17123500E-03 -0.17782731E-03 -0.18318237E-03 -0.18726300E-03 -0.19004144E-03
 -0.19149951E-03 -0.19162879E-03 -0.19043065E-03 -0.18791631E-03 -0.18410664E-03
 -0.17903211E-03 -0.17273244E-03 -0.16525638E-03 -0.15666122E-03 -0.14701243E-03
 -0.13638308E-03 -0.12485329E-03 -0.11250957E-03 -0.99444172E-04 -0.85754354E-04
 -0.71541605E-04 -0.56910865E-04 -0.41969709E-04 -0.26827511E-04 -0.11594598E-04
  0.36185943E-05  0.18702367E-04  0.33548594E-04  0.48051538E-04  0.62108644E-04
  0.75621306E-04  0.88495595E-04  0.10064295E-03  0.11198081E-03  0.12243321E-03
  0.13193132E-03  0.14041393E-03  0.14782781E-03  0.15412811E-03  0.15927864E-03
  0.16325202E-03  0.16602987E-03  0.16760286E-03  0.16797070E-03  0.16714207E-03
  0.16513445E-03  0.16197394E-03  0.15769496E-03  0.15233991E-03  0.14595878E-03
  0.13860868E-03  0.13035333E-03  0.12126253E-03  0.11141154E-03  0.10088045E-03
  0.89753551E-04  0.78118585E-04  0.66066091E-04  0.53688661E-04  0.41080215E-04
  0.28335267E-04  0.15548201E-04  0.28125510E-05 -0.97796969E-05 -0.22138790E-04
 -0.34177863E-04 -0.45813560E-04 -0.56966628E-04 -0.67562461E-04 -0.77531609E-04
 -0.86810237E-04 -0.95340531E-04 -0.10307106E-03 -0.10995706E-03 -0.11596072E-03
 -0.12105131E-03 -0.12520537E-03 -0.12840673E-03 -0.13064656E-03 -0.13192331E-03
 -0.13224262E-03 -0.13161714E-03 -0.13006636E-03 -0.12761633E-03 -0.12429934E-03
 -0.12015362E-03 -0.11522290E-03 -0.10955603E-03 -0.10320649E-03 -0.96231917E-04
 -0.88693592E-04 -0.80655915E-04 -0.72185858E-04 -0.63352408E-04 -0.54226007E-04
 -0.44877992E-04 -0.35380033E-04 -0.25803584E-04 -0.16219342E-04 -0.66967262E-05
  0.26966280E-05  0.11895347E-04  0.20836773E-04  0.29461386E-04  0.37713194E-04
  0.45540088E-04  0.52894156E-04  0.59731969E-04  0.66014808E-04  0.71708866E-04
  0.76785400E-04  0.81220839E-04  0.84996855E-04  0.88100384E-04  0.90523612E-04
  0.92263916E-04  0.93323769E-04  0.93710604E-04  0.93436644E-04  0.92518700E-04
  0.90977934E-04  0.88839595E-04  0.86132734E-04  0.82889885E-04  0.79146739E-04
  0.74941794E-04  0.70315991E-04  0.65312343E-04  0.59975558E-04  0.54351651E-04
  0.48487568E-04  0.42430800E-04  0.36229010E-04  0.29929667E-04  0.23579690E-04
  0.17225110E-04  0.10910740E-04  0.46798749E-05 -0.14259993E-05 -0.73674652E-05
 -0.13107415E-04 -0.18611264E-04 -0.23847141E-04 -0.28786045E-04 -0.33401983E-04
 -0.37672074E-04 -0.41576627E-04 -0.45099192E-04 -0.48226580E-04 -0.50948865E-04
 -0.53259348E-04 -0.55154507E-04 -0.56633918E-04 -0.57700156E-04 -0.58358671E-04
 -0.58617655E-04 -0.58487881E-04 -0.57982530E-04 -0.57117010E-04 -0.55908760E-04
 -0.54377040E-04 -0.52542723E-04 -0.50428073E-04 -0.48056529E-04 -0.45452480E-04
 -0.42641044E-04 -0.39647851E-04 -0.36498828E-04 -0.33219993E-04 -0.29837253E-04
 -0.26376213E-04 -0.22862000E-04 -0.19319088E-04 -0.15771145E-04 -0.12240894E-04
 -0.87499767E-05 -0.53188463E-05 -0.19666660E-05  0.12887734E-05  0.44311216E-05
  0.74455211E-05  0.10318645E-04  0.13038718E-04  0.15595528E-04  0.17980418E-04
  0.20186266E-04  0.22207461E-04  0.24039852E-04  0.25680706E-04  0.27128636E-04
  0.28383541E-04  0.29446522E-04  0.30319803E-04  0.31006642E-04  0.31511242E-04
  0.31838653E-04  0.31994681E-04  0.31985792E-04  0.31819013E-04  0.31501846E-04
  0.31042172E-04  0.30448165E-04  0.29728210E-04  0.28890827E-04  0.27944592E-04
  0.26898079E-04  0.25759793E-04  0.24538117E-04  0.23241272E-04  0.21877267E-04
  0.20453873E-04  0.18978598E-04  0.17458661E-04  0.15900986E-04  0.14312194E-04
  0.12698601E-04  0.11066223E-04  0.94207871E-05  0.77677437E-05  0.61122858E-05
  0.44593691E-05  0.28137349E-05  0.11799358E-05 -0.43763888E-06 -0.20347357E-05
 -0.36072113E-05 -0.51510065E-05 -0.66621219E-05 -0.81365960E-05 -0.95704853E-05
 -0.10959848E-04 -0.12300728E-04 -0.13589150E-04 -0.14821110E-04 -0.15992574E-04
 -0.17099483E-04 -0.18137759E-04 -0.19103318E-04 -0.19992085E-04 -0.20800017E-04
 -0.21523125E-04 -0.22157505E-04 -0.22699370E-04 -0.23145087E-04 -0.23491209E-04
 -0.23734525E-04 -0.23872096E-04 -0.23901298E-04 -0.23819872E-04 -0.23625961E-04
 -0.23318159E-04 -0.22895551E-04 -0.22357751E-04 -0.21704946E-04 -0.20937926E-04
 -0.20058115E-04 -0.19067600E-04 -0.17969154E-04 -0.16766248E-04 -0.15463069E-04
 -0.14064520E-04 -0.12576219E-04 -0.11004498E-04 -0.93563782E-05 -0.76395586E-05
 -0.58623819E-05 -0.40338018E-05 -0.21633412E-05 -0.26104360E-06  0.16625807E-05
  0.35966155E-05  0.55298044E-05  0.74506221E-05  0.93473495E-05  0.11208154E-04
  0.13021172E-04  0.14774594E-04  0.16456754E-04  0.18056217E-04  0.19561867E-04
  0.20962999E-04  0.22249406E-04  0.23411462E-04  0.24440209E-04  0.25327434E-04
  0.26065747E-04  0.26648646E-04  0.27070590E-04  0.27327047E-04  0.27414555E-04
  0.27330758E-04  0.27074447E-04  0.26645583E-04  0.26045318E-04  0.25276002E-04
  0.24341184E-04  0.23245605E-04  0.21995172E-04  0.20596937E-04  0.19059052E-04
  0.17390729E-04  0.15602179E-04  0.13704549E-04  0.11709850E-04  0.96308768E-05
  0.74811215E-05  0.52746795E-05  0.30261513E-05  0.75053906E-06 -0.15368615E-05
 -0.38205713E-05 -0.60850416E-05 -0.83147678E-05 -0.10494405E-04 -0.12608882E-04
 -0.14643514E-04 -0.16584115E-04 -0.18417104E-04 -0.20129609E-04 -0.21709565E-04
 -0.23145808E-04 -0.24428160E-04 -0.25547508E-04 -0.26495879E-04 -0.27266496E-04
 -0.27853836E-04 -0.28253676E-04 -0.28463120E-04 -0.28480633E-04 -0.28306046E-04
 -0.27940566E-04 -0.27386763E-04 -0.26648559E-04 -0.25731194E-04 -0.24641191E-04
 -0.23386308E-04 -0.21975479E-04 -0.20418752E-04 -0.18727206E-04 -0.16912877E-04
 -0.14988664E-04 -0.12968231E-04 -0.10865908E-04 -0.86965839E-05 -0.64755921E-05
 -0.42185994E-05 -0.19414883E-05  0.33976098E-06  0.26091890E-05  0.48509745E-05
  0.70495513E-05  0.91897222E-05  0.11256770E-04  0.13236564E-04  0.15115662E-04
  0.16881407E-04  0.18522017E-04  0.20026668E-04  0.21385568E-04  0.22590025E-04
  0.23632504E-04  0.24506679E-04  0.25207469E-04  0.25731069E-04  0.26074974E-04
  0.26237983E-04  0.26220203E-04  0.26023039E-04  0.25649173E-04  0.25102536E-04
  0.24388271E-04  0.23512683E-04  0.22483187E-04  0.21308241E-04  0.19997276E-04
  0.18560623E-04  0.17009420E-04  0.15355533E-04  0.13611454E-04  0.11790208E-04
  0.99052528E-05  0.79703710E-05  0.59995704E-05  0.40069765E-05  0.20067282E-05
  0.12873379E-07 -0.19607330E-05 -0.39005286E-05 -0.57933401E-05 -0.76264755E-05
 -0.93878120E-05 -0.11065878E-04 -0.12649929E-04 -0.14130021E-04 -0.15497067E-04
 -0.16742900E-04 -0.17860318E-04 -0.18843124E-04 -0.19686160E-04 -0.20385329E-04
 -0.20937614E-04 -0.21341083E-04 -0.21594886E-04 -0.21699254E-04 -0.21655472E-04
 -0.21465863E-04 -0.21133750E-04 -0.20663422E-04 -0.20060082E-04 -0.19329802E-04
 -0.18479460E-04 -0.17516683E-04 -0.16449771E-04 -0.15287635E-04 -0.14039716E-04
 -0.12715912E-04 -0.11326494E-04 -0.98820288E-05 -0.83932942E-05 -0.68711997E-05
 -0.53267037E-05 -0.37707333E-05 -0.22141055E-05 -0.66745139E-06  0.85885806E-06
  0.23547817E-05  0.38106750E-05  0.52173516E-05  0.65661415E-05  0.78489430E-05
  0.90582700E-05  0.10187294E-04  0.11229878E-04  0.12180611E-04  0.13034825E-04
  0.13788620E-04  0.14438871E-04  0.14983233E-04  0.15420145E-04  0.15748820E-04
  0.15969236E-04  0.16082117E-04  0.16088910E-04  0.15991759E-04  0.15793475E-04
  0.15497496E-04  0.15107851E-04  0.14629115E-04  0.14066362E-04  0.13425120E-04
  0.12711317E-04  0.11931228E-04  0.11091428E-04  0.10198728E-04  0.92601273E-05
  0.82827583E-05  0.72738304E-05  0.62405784E-05  0.51902113E-05  0.41298618E-05
  0.30665387E-05  0.20070818E-05  0.95811882E-06 -0.73974448E-07 -0.10831107E-05
 -0.20635248E-05 -0.30098033E-05 -0.39169116E-05 -0.47802155E-05 -0.55955015E-05
 -0.63589909E-05 -0.70673518E-05 -0.77177068E-05 -0.83076371E-05 -0.88351830E-05
 -0.92988415E-05 -0.96975595E-05 -0.10030726E-04 -0.10298157E-04 -0.10500087E-04
 atomic pseudo charge-density
  0.60000000E+01  0.59917682E+01  0.59671789E+01  0.59265479E+01  0.58703891E+01
  0.57993990E+01  0.57144341E+01  0.56164855E+01  0.55066511E+01  0.53861066E+01
  0.52560766E+01  0.51178084E+01  0.49725469E+01  0.48215134E+01  0.46658876E+01
  0.45067929E+01  0.43452859E+01  0.41823479E+01  0.40188803E+01  0.38557025E+01
  0.36935506E+01  0.35330798E+01  0.33748662E+01  0.32194109E+01  0.30671444E+01
  0.29184307E+01  0.27735730E+01  0.26328185E+01  0.24963632E+01  0.23643571E+01
  0.22369087E+01  0.21140897E+01  0.19959388E+01  0.18824658E+01  0.17736551E+01
  0.16694691E+01  0.15698510E+01  0.14747279E+01  0.13840130E+01  0.12976078E+01
  0.12154045E+01  0.11372872E+01  0.10631344E+01  0.99281941E+00  0.92621249E+00
  0.86318152E+00  0.80359314E+00  0.74731357E+00  0.69420943E+00  0.64414831E+00
  0.59699943E+00  0.55263403E+00  0.51092581E+00  0.47175127E+00  0.43498999E+00
  0.40052481E+00  0.36824205E+00  0.33803164E+00  0.30978717E+00  0.28340598E+00
  0.25878921E+00  0.23584178E+00  0.21447237E+00  0.19459343E+00  0.17612108E+00
  0.15897509E+00  0.14307879E+00  0.12835897E+00  0.11474584E+00  0.10217290E+00
  0.90576829E-01  0.79897429E-01  0.70077480E-01  0.61062655E-01  0.52801404E-01
  0.45244856E-01  0.38346707E-01  0.32063121E-01  0.26352623E-01  0.21176003E-01
  0.16496215E-01  0.12278281E-01  0.84891981E-02  0.50978488E-02  0.20749113E-02
 -0.60722379E-03 -0.29745365E-02 -0.50514558E-02 -0.68609362E-02 -0.84245308E-02
 -0.97624615E-02 -0.10893686E-01 -0.11835965E-01 -0.12605919E-01 -0.13219093E-01
 -0.13690009E-01 -0.14032225E-01 -0.14258381E-01 -0.14380251E-01 -0.14408793E-01
 -0.14354189E-01 -0.14225891E-01 -0.14032660E-01 -0.13782607E-01 -0.13483228E-01
 -0.13141441E-01 -0.12763619E-01 -0.12355619E-01 -0.11922818E-01 -0.11470137E-01
 -0.11002072E-01 -0.10522716E-01 -0.10035788E-01 -0.95446538E-02 -0.90523501E-02
 -0.85616041E-02 -0.80748546E-02 -0.75942711E-02 -0.71217720E-02 -0.66590413E-02
 -0.62075455E-02 -0.57685489E-02 -0.53431281E-02 -0.49321863E-02 -0.45364661E-02
 -0.41565619E-02 -0.37929322E-02 -0.34459103E-02 -0.31157151E-02 -0.28024609E-02
 -0.25061667E-02 -0.22267656E-02 -0.19641128E-02 -0.17179932E-02 -0.14881294E-02
 -0.12741886E-02 -0.10757887E-02 -0.89250485E-03 -0.72387532E-03 -0.56940654E-03
 -0.42857840E-03 -0.30084889E-03 -0.18565853E-03 -0.82434403E-04  0.94060410E-05
  0.90451459E-04  0.16129340E-03  0.22252333E-03  0.27472986E-03  0.31849633E-03
  0.35439845E-03  0.38300229E-03  0.40486239E-03  0.42052016E-03  0.43050232E-03
  0.43531967E-03  0.43546592E-03  0.43141669E-03  0.42362876E-03  0.41253931E-03
  0.39856538E-03  0.38210349E-03  0.36352929E-03  0.34319738E-03  0.32144120E-03
  0.29857309E-03  0.27488433E-03  0.25064534E-03  0.22610595E-03  0.20149575E-03
  0.17702443E-03  0.15288229E-03  0.12924076E-03  0.10625289E-03  0.84054059E-04
  0.62762532E-04  0.42480185E-04  0.23293202E-04  0.52728021E-05 -0.11524002E-04
 -0.27053639E-04 -0.41285201E-04 -0.54199652E-04 -0.65789040E-04 -0.76055702E-04
 -0.85011475E-04 -0.92676915E-04 -0.99080515E-04 -0.10425795E-03 -0.10825132E-03
 -0.11110843E-03 -0.11288204E-03 -0.11362924E-03 -0.11341070E-03 -0.11229008E-03
 -0.11033340E-03 -0.10760841E-03 -0.10418409E-03 -0.10013005E-03 -0.95516070E-04
 -0.90411621E-04 -0.84885399E-04 -0.79004937E-04 -0.72836218E-04 -0.66443335E-04
 -0.59888170E-04 -0.53230119E-04 -0.46525841E-04 -0.39829033E-04 -0.33190251E-04
 -0.26656743E-04 -0.20272327E-04 -0.14077285E-04 -0.81082927E-05 -0.23983694E-05
  0.30231414E-05  0.81305715E-05  0.12901903E-04  0.17318722E-04  0.21366153E-04
  0.25032773E-04  0.28310509E-04  0.31194521E-04  0.33683069E-04  0.35777365E-04
  0.37481420E-04  0.38801874E-04  0.39747818E-04  0.40330616E-04  0.40563712E-04
  0.40462441E-04  0.40043826E-04  0.39326386E-04  0.38329936E-04  0.37075385E-04
  0.35584547E-04  0.33879942E-04  0.31984611E-04  0.29921930E-04  0.27715431E-04
  0.25388635E-04  0.22964882E-04  0.20467181E-04  0.17918062E-04  0.15339436E-04
  0.12752471E-04  0.10177473E-04  0.76337807E-05  0.51396687E-05  0.27122644E-05
  0.36747347E-06 -0.18800818E-05 -0.40171137E-05 -0.60317091E-05 -0.79133585E-05
 -0.96529743E-05 -0.11242899E-04 -0.12676904E-04 -0.13950175E-04 -0.15059296E-04
 -0.16002212E-04 -0.16778201E-04 -0.17387819E-04 -0.17832851E-04 -0.18116253E-04
 -0.18242084E-04 -0.18215437E-04 -0.18042361E-04 -0.17729785E-04 -0.17285434E-04
 -0.16717743E-04 -0.16035772E-04 -0.15249113E-04 -0.14367807E-04 -0.13402247E-04
 -0.12363097E-04 -0.11261200E-04 -0.10107490E-04 -0.89129138E-05 -0.76883457E-05
 -0.64445112E-05 -0.51919123E-05 -0.39407577E-05 -0.27008965E-05 -0.14817574E-05
 -0.29229234E-06  0.85907434E-06  0.19644914E-05  0.30167207E-05  0.40091716E-05
  0.49359292E-05  0.57917773E-05  0.65722154E-05  0.72734700E-05  0.78924998E-05
  0.84269965E-05  0.88753790E-05  0.92367833E-05  0.95110471E-05  0.96986898E-05
  0.98008880E-05  0.98194471E-05  0.97567688E-05  0.96158151E-05  0.94000700E-05
  0.91134970E-05  0.87604960E-05  0.83458562E-05  0.78747095E-05  0.73524808E-05
  0.67848391E-05  0.61776466E-05  0.55369090E-05  0.48687256E-05  0.41792397E-05
  0.34745906E-05  0.27608668E-05  0.20440603E-05  0.13300234E-05  0.62442752E-06
 -0.67275543E-07 -0.73988984E-06 -0.13885085E-05 -0.20085437E-05 -0.25957544E-05
 -0.31462690E-05 -0.36566068E-05 -0.41236942E-05 -0.45448781E-05 -0.49179360E-05
 -0.52410825E-05 -0.55129715E-05 -0.57326965E-05 -0.58997860E-05 -0.60141970E-05
 -0.60763044E-05 -0.60868884E-05 -0.60471179E-05 -0.59585327E-05 -0.58230223E-05
 -0.56428029E-05 -0.54203924E-05 -0.51585835E-05 -0.48604160E-05 -0.45291465E-05
 -0.41682189E-05 -0.37812323E-05 -0.33719099E-05 -0.29440671E-05 -0.25015791E-05
 -0.20483498E-05 -0.15882802E-05 -0.11252383E-05 -0.66302927E-06 -0.20536724E-06
  0.24415185E-06  0.68207580E-06  0.11051201E-05  0.15101899E-05  0.18944005E-05
  0.22550950E-05  0.25898606E-05  0.28965421E-05  0.31732536E-05  0.34183875E-05
  0.36306211E-05  0.38089213E-05  0.39525465E-05  0.40610464E-05  0.41342599E-05
  0.41723095E-05  0.41755957E-05  0.41447873E-05  0.40808110E-05  0.39848390E-05
  0.38582747E-05  0.37027372E-05  0.35200439E-05  0.33121927E-05  0.30813423E-05
  0.28297923E-05  0.25599623E-05  0.22743704E-05  0.19756113E-05  0.16663349E-05
  0.13492238E-05  0.10269718E-05  0.70226248E-06  0.37774812E-06  0.56029463E-07
 -0.26036379E-06 -0.56899162E-06 -0.86752121E-06 -0.11537433E-05 -0.14255874E-05
 -0.16811355E-05 -0.19186341E-05 -0.21365054E-05 -0.23333563E-05 -0.25079860E-05
 -0.26593919E-05 -0.27867742E-05 -0.28895379E-05 -0.29672944E-05 -0.30198606E-05
 -0.30472565E-05 -0.30497017E-05 -0.30276098E-05 -0.29815818E-05 -0.29123982E-05
 -0.28210093E-05 -0.27085250E-05 -0.25762031E-05 -0.24254369E-05 -0.22577417E-05
 -0.20747408E-05 -0.18781508E-05 -0.16697664E-05 -0.14514451E-05 -0.12250912E-05
 -0.99264006E-06 -0.75604259E-06 -0.51724921E-06 -0.27819473E-06 -0.40783321E-07
  0.19312597E-06  0.42173309E-06  0.64331014E-06  0.85621377E-06  0.10588967E-05
  0.12499182E-05  0.14279538E-05  0.15918037E-05  0.17403999E-05  0.18728127E-05
  0.19882556E-05  0.20860890E-05  0.21658229E-05  0.22271184E-05  0.22697873E-05
  0.22937918E-05  0.22992419E-05  0.22863920E-05  0.22556368E-05  0.22075058E-05
  0.21426567E-05  0.20618685E-05  0.19660329E-05  0.18561461E-05  0.17332984E-05
  0.15986651E-05  0.14534948E-05  0.12990994E-05  0.11368420E-05  0.96812573E-06
  0.79438207E-06  0.61705901E-06  0.43760951E-06  0.25747998E-06  0.78099021E-07
 -0.99133487E-07 -0.27285691E-06 -0.44175991E-06 -0.60458994E-06 -0.76016212E-06
 -0.90736744E-06 -0.10451803E-05 -0.11726650E-05 -0.12889819E-05 -0.13933925E-05
 -0.14852631E-05 -0.15640688E-05 -0.16293953E-05 -0.16809406E-05 -0.17185156E-05
 -0.17420437E-05 -0.17515598E-05 -0.17472077E-05 -0.17292380E-05 -0.16980037E-05
 -0.16539563E-05 -0.15976406E-05 -0.15296886E-05 -0.14508136E-05 -0.13618031E-05
 -0.12635116E-05 -0.11568524E-05 -0.10427903E-05 -0.92233235E-06 -0.79652000E-06
 -0.66642000E-06 -0.53311582E-06 -0.39769884E-06 -0.26125973E-06 -0.12487991E-06
  0.10376743E-07  0.14347194E-06  0.27340070E-06  0.39919865E-06  0.51994892E-06
  0.63478855E-06  0.74291440E-06  0.84358840E-06  0.93614237E-06  0.10199820E-05
  0.10945905E-05  0.11595312E-05  0.12144497E-05  0.12590755E-05  0.12932226E-05
  0.13167896E-05  0.13297593E-05  0.13321972E-05  0.13242500E-05  0.13061429E-05
  0.12781768E-05  0.12407243E-05  0.11942263E-05  0.11391870E-05  0.10761690E-05
  0.10057881E-05  0.92870765E-06  0.84563242E-06  0.75730267E-06  0.66448769E-06
  0.56797936E-06  0.46858561E-06  0.36712387E-06  0.26441456E-06  0.16127462E-06
  0.58511240E-07 -0.43084299E-07 -0.14274251E-06 -0.23972134E-06 -0.33331153E-06
 -0.42284155E-06 -0.50768228E-06 -0.58725116E-06 -0.66101600E-06 -0.72849830E-06
 -0.78927607E-06 -0.84298625E-06 -0.88932650E-06 -0.92805663E-06 -0.95899939E-06
 -0.98204088E-06 -0.99713034E-06 -0.10042796E-05 -0.10035617E-05 -0.99510992E-06
 -0.97911492E-06 -0.95582299E-06 -0.92553292E-06 -0.88859287E-06 -0.84539685E-06
 -0.79638091E-06 -0.74201904E-06 -0.68281887E-06 -0.61931718E-06 -0.55207522E-06
 -0.48167399E-06 -0.40870934E-06 -0.33378715E-06 -0.25751842E-06 -0.18051447E-06
 -0.10338216E-06 -0.26719275E-07  0.48889971E-07  0.12287925E-06  0.19470419E-06
  0.26384628E-06  0.32981642E-06  0.39215822E-06  0.45045103E-06  0.50431256E-06
  0.55340123E-06  0.59741810E-06  0.63610853E-06  0.66926332E-06  0.69671965E-06
  0.71836148E-06  0.73411971E-06  0.74397192E-06  0.74794171E-06  0.74609775E-06
  0.73855252E-06  0.72546063E-06  0.70701694E-06  0.68345434E-06  0.65504133E-06
  0.62207928E-06  0.58489958E-06  0.54386050E-06  0.49934403E-06  0.45175243E-06
  0.40150482E-06  0.34903361E-06  0.29478096E-06  0.23919514E-06  0.18272698E-06
  0.12582635E-06  0.68938632E-07  0.12501430E-07 -0.43058743E-07 -0.97329551E-07
 -0.14991578E-06 -0.20044210E-06 -0.24855564E-06 -0.29392827E-06 -0.33625879E-06
 -0.37527472E-06 -0.41073394E-06 -0.44242601E-06 -0.47017325E-06 -0.49383155E-06
 -0.51329085E-06 -0.52847545E-06 -0.53934393E-06 -0.54588891E-06 -0.54813645E-06
 -0.54614533E-06 -0.54000593E-06 -0.52983902E-06 -0.51579428E-06 -0.49804862E-06
 -0.47680430E-06 -0.45228697E-06 -0.42474344E-06 -0.39443945E-06 -0.36165724E-06
 -0.32669309E-06 -0.28985475E-06 -0.25145888E-06 -0.21182846E-06 -0.17129013E-06
 -0.13017161E-06 -0.88799205E-07 -0.47495228E-07 -0.65756355E-08  0.33652317E-07
  0.72892288E-07  0.11086094E-06  0.14728990E-06  0.18192753E-06  0.21454062E-06
  0.24491580E-06  0.27286083E-06  0.29820574E-06  0.32080368E-06  0.34053168E-06
  0.35729110E-06  0.37100800E-06  0.38163324E-06  0.38914236E-06  0.39353538E-06
  0.39483629E-06  0.39309245E-06  0.38837379E-06  0.38077183E-06  0.37039859E-06
  0.35738535E-06  0.34188124E-06  0.32405181E-06  0.30407740E-06  0.28215149E-06
  0.25847896E-06  0.23327429E-06  0.20675973E-06  0.17916342E-06  0.15071756E-06
  0.12165650E-06  0.92214908E-07  0.62625940E-07  0.33119493E-07  0.39204731E-08
 -0.24752841E-07 -0.52690356E-07 -0.79691630E-07 -0.10556724E-06 -0.13014002E-06
 -0.15324623E-06 -0.17473650E-06 -0.19447680E-06 -0.21234910E-06 -0.22825199E-06
 -0.24210121E-06 -0.25382987E-06 -0.26338873E-06 -0.27074616E-06 -0.27588813E-06
 -0.27881789E-06 -0.27955568E-06 -0.27813822E-06 -0.27461813E-06 -0.26906318E-06
 -0.26155550E-06 -0.25219069E-06 -0.24107676E-06 -0.22833314E-06 -0.21408945E-06
 -0.19848437E-06 -0.18166438E-06 -0.16378243E-06 -0.14499672E-06 -0.12546929E-06
 -0.10536476E-06 -0.84848967E-07 -0.64087698E-07 -0.43245381E-07 -0.22483856E-07
 -0.19611759E-08  0.18169540E-07  0.37761194E-07  0.56673721E-07  0.74775041E-07
  0.91941915E-07  0.10806073E-06  0.12302817E-06  0.13675185E-06  0.14915077E-06
  0.16015574E-06  0.16970969E-06  0.17776785E-06  0.18429788E-06  0.18927986E-06
  0.19270618E-06  0.19458142E-06  0.19492200E-06  0.19375587E-06  0.19112205E-06
  0.18707012E-06  0.18165960E-06  0.17495934E-06  0.16704677E-06  0.15800716E-06
  0.14793277E-06  0.13692204E-06  0.12507866E-06  0.11251074E-06  0.99329810E-07
  0.85649925E-07  0.71586741E-07  0.57256578E-07  0.42775511E-07  0.28258476E-07
  0.13818407E-07 -0.43459828E-09 -0.14394075E-07 -0.27957942E-07 -0.41029203E-07
 -0.53516599E-07 -0.65335199E-07 -0.76406934E-07 -0.86661064E-07 -0.96034581E-07
 -0.10447255E-06 -0.11192836E-06 -0.11836393E-06 -0.12374987E-06 -0.12806545E-06
 -0.13129869E-06 -0.13344622E-06 -0.13451315E-06 -0.13451288E-06 -0.13346680E-06
 -0.13140402E-06 -0.12836094E-06 -0.12438085E-06 -0.11951347E-06 -0.11381442E-06
 -0.10734469E-06 -0.10017005E-06 -0.92360437E-07 -0.83989375E-07 -0.75133289E-07
 -0.65870878E-07 -0.56282459E-07 -0.46449307E-07 -0.36453014E-07 -0.26374841E-07
 -0.16295103E-07 -0.62925573E-08  0.35561753E-08  0.13177164E-07  0.22499690E-07
  0.31456735E-07  0.39985431E-07  0.48027466E-07  0.55529455E-07  0.62443256E-07
  0.68726248E-07  0.74341555E-07  0.79258225E-07  0.83451356E-07  0.86902179E-07
  0.89598085E-07  0.91532608E-07  0.92705360E-07  0.93121921E-07  0.92793682E-07
  0.91737646E-07  0.89976198E-07  0.87536821E-07  0.84451795E-07  0.80757852E-07
  0.76495811E-07  0.71710181E-07  0.66448747E-07  0.60762140E-07  0.54703386E-07
  0.48327453E-07  0.41690783E-07  0.34850826E-07  0.27865575E-07  0.20793100E-07
  0.13691096E-07  0.66164403E-08 -0.37524241E-09 -0.72299873E-08 -0.13895884E-07
 -0.20323445E-07 -0.26465952E-07 -0.32279767E-07 -0.37724629E-07 -0.42763898E-07
 -0.47364791E-07 -0.51498561E-07 -0.55140660E-07 -0.58270853E-07 -0.60873307E-07
 -0.62936639E-07 -0.64453926E-07 -0.65422687E-07 -0.65844825E-07 -0.65726543E-07
 -0.65078216E-07 -0.63914246E-07 -0.62252880E-07 -0.60116002E-07 -0.57528903E-07
 -0.54520026E-07 -0.51120691E-07 -0.47364803E-07 -0.43288541E-07 -0.38930042E-07
 -0.34329065E-07 -0.29526655E-07 -0.24564802E-07 -0.19486088E-07 -0.14333352E-07
 -0.91493430E-08 -0.39763874E-08  0.11439394E-08  0.61711278E-08  0.11066037E-07
  0.15791183E-07  0.20311009E-07  0.24592136E-07  0.28603594E-07  0.32317032E-07
  0.35706899E-07  0.38750609E-07  0.41428675E-07  0.43724816E-07  0.45626042E-07
  0.47122707E-07  0.48208541E-07  0.48880650E-07  0.49139492E-07  0.48988828E-07
  0.48435644E-07  0.47490054E-07  0.46165180E-07  0.44477003E-07  0.42444198E-07
  0.40087958E-07  0.37431785E-07  0.34501279E-07  0.31323903E-07  0.27928750E-07
  0.24346285E-07  0.20608088E-07  0.16746593E-07  0.12794818E-07  0.87860946E-08
  0.47538064E-08  0.73111856E-09 -0.32492800E-08 -0.71554299E-08 -0.10956346E-07
 -0.14622251E-07 -0.18124797E-07 -0.21437274E-07 -0.24534804E-07 -0.27394513E-07
 -0.29995696E-07 -0.32319950E-07 -0.34351301E-07 -0.36076299E-07 -0.37484099E-07
 -0.38566522E-07 -0.39318084E-07 -0.39736020E-07 -0.39820271E-07 -0.39573460E-07
 -0.39000843E-07 -0.38110240E-07 -0.36911949E-07 -0.35418637E-07 -0.33645222E-07
 -0.31608726E-07 -0.29328124E-07 -0.26824177E-07 -0.24119244E-07 -0.21237099E-07
 -0.18202723E-07 -0.15042096E-07 -0.11781986E-07 -0.84497255E-08 -0.50729945E-08
 -0.16795946E-08  0.17027704E-08  0.50467127E-08  0.83253752E-08  0.11512639E-07
  0.14583326E-07  0.17513386E-07  0.20280082E-07  0.22862158E-07  0.25239997E-07
  0.27395758E-07  0.29313512E-07  0.30979344E-07  0.32381456E-07  0.33510238E-07
  0.34358333E-07  0.34920673E-07  0.35194510E-07  0.35179413E-07  0.34877262E-07
  0.34292212E-07  0.33430649E-07  0.32301121E-07  0.30914256E-07  0.29282668E-07
  0.27420840E-07  0.25345002E-07  0.23072988E-07  0.20624087E-07  0.18018882E-07
  0.15279080E-07  0.12427334E-07  0.94870581E-08  0.64822396E-08  0.34372466E-08
  0.37663374E-09 -0.26750515E-08 -0.56934624E-08 -0.86546427E-08 -0.11535213E-07
 -0.14312552E-07 -0.16964967E-07 -0.19471864E-07 -0.21813901E-07 -0.23973131E-07
 -0.25933139E-07 -0.27679161E-07 -0.29198193E-07 -0.30479082E-07 -0.31512603E-07
 -0.32291527E-07 -0.32810662E-07 -0.33066886E-07 -0.33059162E-07 -0.32788534E-07
 -0.32258113E-07 -0.31473037E-07 -0.30440428E-07 -0.29169320E-07 -0.27670585E-07
 -0.25956840E-07 -0.24042335E-07 -0.21942839E-07 -0.19675510E-07 -0.17258754E-07
 -0.14712073E-07 -0.12055914E-07 -0.93115015E-08 -0.65006691E-08 -0.36456874E-08
 -0.76908862E-09  0.21065105E-08  0.49585847E-08  0.77648759E-08  0.10503564E-07
  0.13153438E-07  0.15694053E-07  0.18105893E-07  0.20370512E-07  0.22470679E-07
   24.7554104503839      T
 Non local Part
           0           2  0.821728989630451     
   1.10994576930932      -0.486260596294223      -0.486260596294223     
 -0.529103145598907     
 Reciprocal Space Part
  0.20381285E+02  0.20292390E+02  0.20026474E+02  0.19585838E+02  0.18974302E+02
  0.18197184E+02  0.17261265E+02  0.16174748E+02  0.14947205E+02  0.13589511E+02
  0.12113770E+02  0.10533225E+02  0.88621536E+01  0.71157564E+01  0.53100261E+01
  0.34616068E+01  0.15876389E+01 -0.29440640E+00 -0.21669041E+01 -0.40122611E+01
 -0.58131086E+01 -0.75524998E+01 -0.92141095E+01 -0.10782433E+02 -0.12242979E+02
 -0.13582462E+02 -0.14788974E+02 -0.15852149E+02 -0.16763309E+02 -0.17515591E+02
 -0.18104044E+02 -0.18525706E+02 -0.18779652E+02 -0.18867009E+02 -0.18790942E+02
 -0.18556608E+02 -0.18171078E+02 -0.17643226E+02 -0.16983594E+02 -0.16204220E+02
 -0.15318454E+02 -0.14340736E+02 -0.13286373E+02 -0.12171288E+02 -0.11011770E+02
 -0.98242107E+01 -0.86248488E+01 -0.74295160E+01 -0.62533928E+01 -0.51107805E+01
 -0.40148916E+01 -0.29776633E+01 -0.20095979E+01 -0.11196320E+01 -0.31503793E+00
  0.39864201E+00  0.10176272E+01  0.15398963E+01  0.19651516E+01  0.22947515E+01
  0.25316127E+01  0.26800860E+01  0.27458073E+01  0.27355296E+01  0.26569378E+01
  0.25184528E+01  0.23290282E+01  0.20979441E+01  0.18346040E+01  0.15483372E+01
  0.12482123E+01  0.94286456E+00  0.64034147E+00  0.34796826E+00  0.72236220E-01
 -0.18128482E+00 -0.40800876E+00 -0.60436998E+00 -0.76783477E+00 -0.89688847E+00
 -0.99099957E+00 -0.10505629E+01 -0.10768241E+01 -0.10717884E+01 -0.10381164E+01
 -0.97901031E+00 -0.89809393E+00 -0.79928944E+00 -0.68669472E+00 -0.56446391E+00
 -0.43669421E+00 -0.30732149E+00 -0.18002693E+00 -0.58156347E-01  0.55346119E-01
  0.15798932E+00  0.24777078E+00  0.32319670E+00  0.38328680E+00  0.42756467E+00
 Real Space Part
 -0.32887890E+03 -0.32860422E+03 -0.32778103E+03 -0.32641186E+03 -0.32450097E+03
 -0.32205424E+03 -0.31907921E+03 -0.31558499E+03 -0.31158226E+03 -0.30708318E+03
 -0.30210134E+03 -0.29665171E+03 -0.29075055E+03 -0.28441534E+03 -0.27766469E+03
 -0.27051830E+03 -0.26299682E+03 -0.25512178E+03 -0.24691556E+03 -0.23840121E+03
 -0.22960243E+03 -0.22054350E+03 -0.21124912E+03 -0.20174443E+03 -0.19205486E+03
 -0.18220610E+03 -0.17222400E+03 -0.16213457E+03 -0.15196382E+03 -0.14173780E+03
 -0.13148250E+03 -0.12122382E+03 -0.11098750E+03 -0.10079911E+03 -0.90684014E+02
 -0.80667306E+02 -0.70773801E+02 -0.61027997E+02 -0.51454046E+02 -0.42075723E+02
 -0.32916394E+02 -0.23998991E+02 -0.15345971E+02 -0.69792858E+01  0.10796561E+01
  0.88100341E+01  0.16191660E+02  0.23205028E+02  0.29831371E+02  0.36052721E+02
  0.41851978E+02  0.47212976E+02  0.52120567E+02  0.56560699E+02  0.60520506E+02
  0.63988398E+02  0.66954158E+02  0.69409038E+02  0.71345860E+02  0.72759112E+02
  0.73645048E+02  0.74001782E+02  0.73829375E+02  0.73129917E+02  0.71907603E+02
  0.70168789E+02  0.67922040E+02  0.65178166E+02  0.61950230E+02  0.58253544E+02
  0.54105643E+02  0.49526233E+02  0.44537121E+02  0.39162102E+02  0.33426781E+02
  0.27358106E+02  0.20988078E+02  0.14403808E+02  0.78135515E+01  0.54828021E+01
  0.30319876E+01  0.73903934E+00 -0.13781338E+01 -0.32966046E+01 -0.49906577E+01
 -0.64364895E+01 -0.76126001E+01 -0.84998240E+01 -0.90814839E+01 -0.93434176E+01
 -0.92740757E+01 -0.88646055E+01 -0.81086220E+01 -0.70024146E+01 -0.55488382E+01
 -0.37308263E+01 -0.15372463E+01  0.15876904E+00 -0.23537974E-01  0.00000000E+00
 Reciprocal Space Part
  0.13438082E+02  0.13371799E+02  0.13173527E+02  0.12844992E+02  0.12389061E+02
  0.11809723E+02  0.11112073E+02  0.10302273E+02  0.93875223E+01  0.83760049E+01
  0.72768379E+01  0.61000053E+01  0.48562832E+01  0.35571548E+01  0.22147146E+01
  0.84156251E+00 -0.54931223E+00 -0.19446569E+01 -0.33310895E+01 -0.46952405E+01
 -0.60239006E+01 -0.73041728E+01 -0.85236267E+01 -0.96704521E+01 -0.10733611E+02
 -0.11702984E+02 -0.12569510E+02 -0.13325309E+02 -0.13963805E+02 -0.14479818E+02
 -0.14869647E+02 -0.15131130E+02 -0.15263684E+02 -0.15268316E+02 -0.15147617E+02
 -0.14905722E+02 -0.14548255E+02 -0.14082243E+02 -0.13516007E+02 -0.12859031E+02
 -0.12121816E+02 -0.11315711E+02 -0.10452729E+02 -0.95453610E+01 -0.86063686E+01
 -0.76485856E+01 -0.66847120E+01 -0.57271153E+01 -0.47876388E+01 -0.38774215E+01
 -0.30067335E+01 -0.21848295E+01 -0.14198232E+01 -0.71858500E+00 -0.86665233E-01
  0.47175692E+00  0.95389708E+00  0.13583625E+01  0.16851226E+01  0.19354534E+01
  0.21118597E+01  0.22179742E+01  0.22584388E+01  0.22387694E+01  0.21652085E+01
  0.20445684E+01  0.18840693E+01  0.16911747E+01  0.14734297E+01  0.12383042E+01
  0.99304450E+00  0.74453637E+00  0.49918298E+00  0.26279861E+00  0.40520759E-01
 -0.16325832E+00 -0.34493986E+00 -0.50174643E+00 -0.63172949E+00 -0.73375760E+00
 -0.80748615E+00 -0.85331054E+00 -0.87230447E+00 -0.86614562E+00 -0.83703131E+00
 -0.78758645E+00 -0.72076673E+00 -0.63975949E+00 -0.54788503E+00 -0.44850080E+00
 -0.34491069E+00 -0.24028156E+00 -0.13756876E+00 -0.39451932E-01  0.51717551E-01
  0.13395703E+00  0.20568037E+00  0.26571322E+00  0.31329598E+00  0.34807519E+00
 Real Space Part
 -0.26440140E+03 -0.26419157E+03 -0.26356268E+03 -0.26251653E+03 -0.26105610E+03
 -0.25918557E+03 -0.25691026E+03 -0.25423661E+03 -0.25117220E+03 -0.24772565E+03
 -0.24390660E+03 -0.23972571E+03 -0.23519457E+03 -0.23032565E+03 -0.22513229E+03
 -0.21962860E+03 -0.21382944E+03 -0.20775035E+03 -0.20140750E+03 -0.19481764E+03
 -0.18799804E+03 -0.18096643E+03 -0.17374096E+03 -0.16634014E+03 -0.15878281E+03
 -0.15108808E+03 -0.14327527E+03 -0.13536391E+03 -0.12737366E+03 -0.11932429E+03
 -0.11123565E+03 -0.10312763E+03 -0.95020131E+02 -0.86933045E+02 -0.78886210E+02
 -0.70899396E+02 -0.62992277E+02 -0.55184404E+02 -0.47495180E+02 -0.39943835E+02
 -0.32549398E+02 -0.25330667E+02 -0.18306177E+02 -0.11494171E+02 -0.49125584E+01
  0.14211241E+01  0.74897543E+01  0.13276675E+02  0.18765745E+02  0.23941399E+02
  0.28788707E+02  0.33293442E+02  0.37442151E+02  0.41222235E+02  0.44622021E+02
  0.47630853E+02  0.50239175E+02  0.52438618E+02  0.54222093E+02  0.55583874E+02
  0.56519692E+02  0.57026816E+02  0.57104132E+02  0.56752220E+02  0.55973417E+02
  0.54771872E+02  0.53153594E+02  0.51126479E+02  0.48700329E+02  0.45886846E+02
  0.42699620E+02  0.39154083E+02  0.35267457E+02  0.31058667E+02  0.26548187E+02
  0.21757674E+02  0.16712921E+02  0.11483820E+02  0.62370447E+01  0.43817603E+01
  0.24259588E+01  0.59199765E+00 -0.11051557E+01 -0.26464613E+01 -0.40106010E+01
 -0.51777428E+01 -0.61298692E+01 -0.68508148E+01 -0.73264031E+01 -0.75444804E+01
 -0.74950057E+01 -0.71701288E+01 -0.65640147E+01 -0.56730193E+01 -0.44988594E+01
 -0.30270969E+01 -0.12481544E+01  0.12893219E+00 -0.19114573E-01  0.00000000E+00
 Non local Part
           1           2  0.821728989630451     
   6.12884221516646       -10.2499971659541       -10.2499971659541     
   16.6355590099336     
 Reciprocal Space Part
  0.00000000E+00  0.77436640E+00  0.15346617E+01  0.22670851E+01  0.29583701E+01
  0.35960384E+01  0.41686362E+01  0.46659502E+01  0.50791971E+01  0.54011839E+01
  0.56264349E+01  0.57512844E+01  0.57739311E+01  0.56944559E+01  0.55148009E+01
  0.52387121E+01  0.48716457E+01  0.44206422E+01  0.38941691E+01  0.33019384E+01
  0.26547007E+01  0.19640223E+01  0.12420490E+01  0.50126270E+00 -0.24576442E+00
 -0.98661314E+00 -0.17092523E+01 -0.24022608E+01 -0.30550335E+01 -0.36579643E+01
 -0.42026060E+01 -0.46818017E+01 -0.50897875E+01 -0.54222628E+01 -0.56764298E+01
 -0.58510005E+01 -0.59461725E+01 -0.59635752E+01 -0.59061879E+01 -0.57782322E+01
 -0.55850430E+01 -0.53329202E+01 -0.50289651E+01 -0.46809069E+01 -0.42969214E+01
 -0.38854477E+01 -0.34550068E+01 -0.30140249E+01 -0.25706666E+01 -0.21326809E+01
 -0.17072622E+01 -0.13009300E+01 -0.91942838E+00 -0.56764716E+00 -0.24956582E+00
  0.31780148E-01  0.27430995E+00  0.47688647E+00  0.63928453E+00  0.76214012E+00
  0.84688279E+00  0.89565341E+00  0.91121006E+00  0.89682480E+00  0.85617430E+00
  0.79322715E+00  0.71213089E+00  0.61710144E+00  0.51231747E+00  0.40182219E+00
  0.28943449E+00  0.17867113E+00  0.72681469E-01 -0.25804441E-01 -0.11451380E+00
 -0.19165476E+00 -0.25592621E+00 -0.30651405E+00 -0.34307498E+00 -0.36570880E+00
 -0.37492076E+00 -0.37157550E+00 -0.35684428E+00 -0.33214742E+00 -0.29909376E+00
 -0.25941894E+00 -0.21492443E+00 -0.16741874E+00 -0.11866261E+00 -0.70319230E-01
 -0.23910784E-01  0.19217922E-01  0.57928068E-01  0.91307335E-01  0.11868221E+00
  0.13962223E+00  0.15393648E+00  0.16166301E+00  0.16305184E+00  0.15854243E+00
 Real Space Part
  0.00000000E+00 -0.26861587E+01 -0.53613903E+01 -0.80148402E+01 -0.10635798E+02
 -0.13213766E+02 -0.15738531E+02 -0.18200219E+02 -0.20589364E+02 -0.22896957E+02
 -0.25114496E+02 -0.27234029E+02 -0.29248190E+02 -0.31150230E+02 -0.32934040E+02
 -0.34594167E+02 -0.36125822E+02 -0.37524886E+02 -0.38787907E+02 -0.39912086E+02
 -0.40895272E+02 -0.41735933E+02 -0.42433142E+02 -0.42986543E+02 -0.43396327E+02
 -0.43663199E+02 -0.43788343E+02 -0.43773394E+02 -0.43620401E+02 -0.43331793E+02
 -0.42910354E+02 -0.42359189E+02 -0.41681699E+02 -0.40881559E+02 -0.39962695E+02
 -0.38929269E+02 -0.37785663E+02 -0.36536476E+02 -0.35186510E+02 -0.33740773E+02
 -0.32204481E+02 -0.30583059E+02 -0.28882149E+02 -0.27107621E+02 -0.25265584E+02
 -0.23362394E+02 -0.21404672E+02 -0.19399314E+02 -0.17353500E+02 -0.15274705E+02
 -0.13170703E+02 -0.11049575E+02 -0.89196991E+01 -0.67897505E+01 -0.46686839E+01
 -0.25657160E+01 -0.49029773E+00  0.15479207E+01  0.35391324E+01  0.54734250E+01
  0.73408410E+01  0.91314457E+01  0.10835404E+02  0.12443065E+02  0.13945052E+02
  0.15332364E+02  0.16596475E+02  0.17729443E+02  0.18724020E+02  0.19573765E+02
  0.20273153E+02  0.20817682E+02  0.21203983E+02  0.21429912E+02  0.21494641E+02
  0.21398744E+02  0.21144259E+02  0.20734743E+02  0.20175319E+02  0.19472688E+02
  0.18635147E+02  0.17672569E+02  0.16596377E+02  0.15419495E+02  0.14156276E+02
  0.12822427E+02  0.11434894E+02  0.10011759E+02  0.85720928E+01  0.71358233E+01
  0.57235723E+01  0.43564978E+01  0.30560718E+01  0.18439250E+01  0.74359368E+00
 -0.23216957E+00 -0.10693025E+01 -0.13318153E+01 -0.15899388E+00  0.00000000E+00
 Reciprocal Space Part
  0.00000000E+00  0.43664812E+00  0.86378376E+00  0.12720859E+01  0.16526124E+01
  0.19969794E+01  0.22975284E+01  0.25474788E+01  0.27410606E+01  0.28736271E+01
  0.29417424E+01  0.29432447E+01  0.28772824E+01  0.27443226E+01  0.25461335E+01
  0.22857388E+01  0.19673476E+01  0.15962604E+01  0.11787531E+01  0.72194300E+00
  0.23363879E+00 -0.27782202E+00 -0.80374401E+00 -0.13352497E+01 -0.18634569E+01
 -0.23796523E+01 -0.28754602E+01 -0.33429999E+01 -0.37750310E+01 -0.41650818E+01
 -0.45075604E+01 -0.47978443E+01 -0.50323488E+01 -0.52085717E+01 -0.53251155E+01
 -0.53816851E+01 -0.53790642E+01 -0.53190682E+01 -0.52044788E+01 -0.50389588E+01
 -0.48269525E+01 -0.45735716E+01 -0.42844719E+01 -0.39657215E+01 -0.36236657E+01
 -0.32647906E+01 -0.28955881E+01 -0.25224260E+01 -0.21514264E+01 -0.17883528E+01
 -0.14385104E+01 -0.11066600E+01 -0.79694723E+00 -0.51284824E+00 -0.25713256E+00
 -0.31842906E-01  0.16170806E+00  0.32292457E+00  0.45189934E+00  0.54937117E+00
  0.61667011E+00  0.65565217E+00  0.66862536E+00  0.65826944E+00  0.62755146E+00
  0.57963926E+00  0.51781530E+00  0.44539266E+00  0.36563528E+00  0.28168415E+00
  0.19649092E+00  0.11276023E+00  0.32901692E-01 -0.41007738E-01 -0.10725069E+00
 -0.16448544E+00 -0.21175134E+00 -0.24846406E+00 -0.27440135E+00 -0.28968024E+00
 -0.29472676E+00 -0.29023943E+00 -0.27714787E+00 -0.25656791E+00 -0.22975469E+00
 -0.19805500E+00 -0.16286045E+00 -0.12556247E+00 -0.87510542E-01 -0.49974388E-01
 -0.14111160E-01  0.19061861E-01  0.48688544E-01  0.74088950E-01  0.94768046E-01
  0.11041825E+00  0.12091607E+00  0.12631334E+00  0.12682358E+00  0.12280423E+00
 Real Space Part
  0.00000000E+00 -0.26775561E+01 -0.53440412E+01 -0.79884613E+01 -0.10599975E+02
 -0.13167969E+02 -0.15682128E+02 -0.18132501E+02 -0.20509569E+02 -0.22804299E+02
 -0.25008198E+02 -0.27113359E+02 -0.29112498E+02 -0.30998992E+02 -0.32766898E+02
 -0.34410973E+02 -0.35926688E+02 -0.37310225E+02 -0.38558482E+02 -0.39669056E+02
 -0.40640234E+02 -0.41470967E+02 -0.42160851E+02 -0.42710088E+02 -0.43119463E+02
 -0.43390303E+02 -0.43524437E+02 -0.43524164E+02 -0.43392208E+02 -0.43131679E+02
 -0.42746038E+02 -0.42239057E+02 -0.41614783E+02 -0.40877511E+02 -0.40031746E+02
 -0.39082185E+02 -0.38033686E+02 -0.36891257E+02 -0.35660033E+02 -0.34345270E+02
 -0.32952332E+02 -0.31486691E+02 -0.29953921E+02 -0.28359703E+02 -0.26709829E+02
 -0.25010203E+02 -0.23266857E+02 -0.21485949E+02 -0.19673781E+02 -0.17836800E+02
 -0.15981609E+02 -0.14114970E+02 -0.12243806E+02 -0.10375202E+02 -0.85163983E+01
 -0.66747816E+01 -0.48578706E+01 -0.30732953E+01 -0.13287703E+01  0.36793768E+00
  0.20090494E+01  0.35868195E+01  0.50935893E+01  0.65218462E+01  0.78642888E+01
  0.91138978E+01  0.10264012E+02  0.11308408E+02  0.12241381E+02  0.13057833E+02
  0.13753354E+02  0.14324307E+02  0.14767913E+02  0.15082323E+02  0.15266695E+02
  0.15321260E+02  0.15247374E+02  0.15047570E+02  0.14725596E+02  0.14286432E+02
  0.13736307E+02  0.13082696E+02  0.12334297E+02  0.11501009E+02  0.10593875E+02
  0.96250310E+01  0.86076242E+01  0.75557342E+01  0.64842647E+01  0.54088423E+01
  0.43456935E+01  0.33115225E+01  0.23233386E+01  0.13983350E+01  0.55525537E+00
 -0.19553803E+00 -0.84260286E+00 -0.10442207E+01 -0.12463972E+00  0.00000000E+00
 PAW radial sets
         377  0.721520152002726     
(5E20.12)                                
 augmentation charges (non sperical)
 -0.157752210133E+00  0.204307985990E+00  0.447401445179E-01 -0.525030860708E-01  0.204307985990E+00
 -0.264895400929E+00 -0.572873051840E-01  0.674773332044E-01  0.447401445179E-01 -0.572873051840E-01
  0.206642371551E+00 -0.289235099519E+00 -0.525030860708E-01  0.674773332044E-01 -0.289235099519E+00
  0.406654885716E+00
 uccopancies in atom
  0.200000000006E+01  0.000000000000E+00  0.000000000000E+00  0.000000000000E+00  0.000000000000E+00
  0.000000000000E+00  0.000000000000E+00  0.000000000000E+00  0.000000000000E+00  0.000000000000E+00
  0.133333333302E+01  0.000000000000E+00  0.000000000000E+00  0.000000000000E+00  0.000000000000E+00
  0.000000000000E+00
 grid
  0.292861757568E-04  0.302384891324E-04  0.312217693632E-04  0.322370234141E-04  0.332852909940E-04
  0.343676456204E-04  0.354851957192E-04  0.366390857593E-04  0.378304974248E-04  0.390606508255E-04
  0.403308057460E-04  0.416422629358E-04  0.429963654417E-04  0.443944999831E-04  0.458380983718E-04
  0.473286389788E-04  0.488676482478E-04  0.504567022590E-04  0.520974283424E-04  0.537915067449E-04
  0.555406723508E-04  0.573467164586E-04  0.592114886153E-04  0.611368985105E-04  0.631249179321E-04
  0.651775827859E-04  0.672969951799E-04  0.694853255777E-04  0.717448150208E-04  0.740777774238E-04
  0.764866019442E-04  0.789737554287E-04  0.815417849398E-04  0.841933203642E-04  0.869310771058E-04
  0.897578588667E-04  0.926765605186E-04  0.956901710669E-04  0.988017767123E-04  0.102014564011E-03
  0.105331823137E-03  0.108756951255E-03  0.112293455994E-03  0.115944959045E-03  0.119715199866E-03
  0.123608039513E-03  0.127627464593E-03  0.131777591350E-03  0.136062669876E-03  0.140487088466E-03
  0.145055378110E-03  0.149772217137E-03  0.154642436003E-03  0.159671022236E-03  0.164863125548E-03
  0.170224063108E-03  0.175759324983E-03  0.181474579766E-03  0.187375680376E-03  0.193468670057E-03
  0.199759788562E-03  0.206255478546E-03  0.212962392164E-03  0.219887397881E-03  0.227037587508E-03
  0.234420283464E-03  0.242043046275E-03  0.249913682317E-03  0.258040251807E-03  0.266431077064E-03
  0.275094751026E-03  0.284040146052E-03  0.293276423008E-03  0.302813040649E-03  0.312659765305E-03
  0.322826680882E-03  0.333324199190E-03  0.344163070606E-03  0.355354395080E-03  0.366909633507E-03
  0.378840619461E-03  0.391159571315E-03  0.403879104750E-03  0.417012245681E-03  0.430572443592E-03
  0.444573585311E-03  0.459030009230E-03  0.473956519990E-03  0.489368403644E-03  0.505281443305E-03
  0.521711935319E-03  0.538676705943E-03  0.556193128586E-03  0.574279141596E-03  0.592953266629E-03
  0.612234627622E-03  0.632142970374E-03  0.652698682767E-03  0.673922815646E-03  0.695837104379E-03
  0.718463991113E-03  0.741826647755E-03  0.765948999709E-03  0.790855750370E-03  0.816572406429E-03
  0.843125303987E-03  0.870541635532E-03  0.898849477784E-03  0.928077820446E-03  0.958256595896E-03
  0.989416709837E-03  0.102159007295E-02  0.105480963356E-02  0.108910941142E-02  0.112452453248E-02
  0.116109126493E-02  0.119884705630E-02  0.123783057181E-02  0.127808173400E-02  0.131964176357E-02
  0.136255322161E-02  0.140686005323E-02  0.145260763247E-02  0.149984280887E-02  0.154861395536E-02
  0.159897101787E-02  0.165096556643E-02  0.170465084799E-02  0.176008184098E-02  0.181731531158E-02
  0.187640987187E-02  0.193742603983E-02  0.200042630136E-02  0.206547517423E-02  0.213263927416E-02
  0.220198738308E-02  0.227359051949E-02  0.234752201127E-02  0.242385757072E-02  0.250267537214E-02
  0.258405613183E-02  0.266808319080E-02  0.275484260011E-02  0.284442320898E-02  0.293691675577E-02
  0.303241796195E-02  0.313102462912E-02  0.323283773910E-02  0.333796155744E-02  0.344650374009E-02
  0.355857544374E-02  0.367429143961E-02  0.379377023099E-02  0.391713417460E-02  0.404450960591E-02
  0.417602696847E-02  0.431182094758E-02  0.445203060811E-02  0.459679953703E-02  0.474627599036E-02
  0.490061304506E-02  0.505996875575E-02  0.522450631661E-02  0.539439422848E-02  0.556980647142E-02
  0.575092268290E-02  0.593792834175E-02  0.613101495811E-02  0.633038026953E-02  0.653622844353E-02
  0.674877028662E-02  0.696822346022E-02  0.719481270355E-02  0.742877006381E-02  0.767033513377E-02
  0.791975529717E-02  0.817728598207E-02  0.844319092237E-02  0.871774242798E-02  0.900122166363E-02
  0.929391893683E-02  0.959613399516E-02  0.990817633326E-02  0.102303655097E-01  0.105630314745E-01
  0.109065149065E-01  0.112611675628E-01  0.116273526388E-01  0.120054451399E-01  0.123958322659E-01
  0.127989138074E-01  0.132151025550E-01  0.136448247225E-01  0.140885203828E-01  0.145466439191E-01
  0.150196644899E-01  0.155080665096E-01  0.160123501446E-01  0.165330318254E-01  0.170706447755E-01
  0.176257395575E-01  0.181988846371E-01  0.187906669648E-01  0.194016925775E-01  0.200325872188E-01
  0.206839969800E-01  0.213565889615E-01  0.220510519564E-01  0.227680971554E-01  0.235084588754E-01
  0.242728953116E-01  0.250621893137E-01  0.258771491876E-01  0.267186095236E-01  0.275874320505E-01
  0.284845065186E-01  0.294107516104E-01  0.303671158820E-01  0.313545787337E-01  0.323741514141E-01
  0.334268780544E-01  0.345138367389E-01  0.356361406081E-01  0.367949389994E-01  0.379914186235E-01
  0.392268047802E-01  0.405023626127E-01  0.418193984038E-01  0.431792609133E-01  0.445833427591E-01
  0.460330818438E-01  0.475299628269E-01  0.490755186453E-01  0.506713320832E-01  0.523190373930E-01
  0.540203219690E-01  0.557769280752E-01  0.575906546298E-01  0.594633590472E-01  0.613969591405E-01
  0.633934350851E-01  0.654548314468E-01  0.675832592756E-01  0.697808982676E-01  0.720499989972E-01
  0.743928852218E-01  0.768119562617E-01  0.793096894569E-01  0.818886427046E-01  0.845514570782E-01
  0.873008595323E-01  0.901396656953E-01  0.930707827527E-01  0.960972124246E-01  0.992220540394E-01
  0.102448507708E+00  0.105779877601E+00  0.109219575332E+00  0.112771123452E+00  0.116438159057E+00
  0.120224437512E+00  0.124133836297E+00  0.128170358977E+00  0.132338139305E+00  0.136641445452E+00
  0.141084684380E+00  0.145672406352E+00  0.150409309599E+00  0.155300245122E+00  0.160350221666E+00
  0.165564410850E+00  0.170948152458E+00  0.176506959912E+00  0.182246525918E+00  0.188172728291E+00
  0.194291635982E+00  0.200609515285E+00  0.207132836263E+00  0.213868279365E+00  0.220822742274E+00
  0.228003346967E+00  0.235417447012E+00  0.243072635094E+00  0.250976750795E+00  0.259137888621E+00
  0.267564406289E+00  0.276264933290E+00  0.285248379723E+00  0.294523945424E+00  0.304101129382E+00
  0.313989739470E+00  0.324199902489E+00  0.334742074538E+00  0.345627051723E+00  0.356865981211E+00
  0.368470372648E+00  0.380452109945E+00  0.392823463449E+00  0.405597102506E+00  0.418786108438E+00
  0.432403987941E+00  0.446464686913E+00  0.460982604738E+00  0.475972609033E+00  0.491450050872E+00
  0.507430780509E+00  0.523931163606E+00  0.540968097998E+00  0.558559030995E+00  0.576721977248E+00
  0.595475537203E+00  0.614838916143E+00  0.634831943861E+00  0.655475094963E+00  0.676789509841E+00
  0.698797016317E+00  0.721520152003E+00  0.744982187373E+00  0.769207149603E+00  0.794219847171E+00
  0.820045895265E+00  0.846711742015E+00  0.874244695578E+00  0.902672952104E+00  0.932025624613E+00
  0.962332772806E+00  0.993625433851E+00  0.102593565417E+01  0.105929652224E+01  0.109374220253E+01
  0.112930797040E+01  0.116603024832E+01  0.120394664310E+01  0.124309598446E+01  0.128351836473E+01
  0.132525517996E+01  0.136834917231E+01  0.141284447378E+01  0.145878665145E+01  0.150622275412E+01
  0.155520136052E+01  0.160577262901E+01  0.165798834900E+01  0.171190199393E+01  0.176756877610E+01
  0.182504570315E+01  0.188439163649E+01  0.194566735153E+01  0.200893559995E+01  0.207426117398E+01
  0.214171097271E+01  0.221135407063E+01  0.228326178835E+01  0.235750776566E+01  0.243416803694E+01
  0.251332110900E+01  0.259504804149E+01  0.267943252995E+01  0.276656099146E+01  0.285652265317E+01
  0.294940964370E+01  0.304531708744E+01  0.314434320198E+01  0.324658939873E+01  0.335216038673E+01
  0.346116427989E+01  0.357371270772E+01  0.368992092966E+01  0.380990795306E+01  0.393379665514E+01
  0.406171390874E+01  0.419379071232E+01  0.433016232405E+01  0.447096840040E+01  0.461635313908E+01
  0.476646542677E+01  0.492145899157E+01
 aepotential
  0.344621258081E+05  0.335729067623E+05  0.326607416941E+05  0.317299034284E+05  0.307848731777E+05
  0.298307969953E+05  0.288714723153E+05  0.279108476125E+05  0.269530828905E+05  0.260013700630E+05
  0.250590462996E+05  0.241289578547E+05  0.232136948866E+05  0.223155372791E+05  0.214364903046E+05
  0.205782400891E+05  0.197422067901E+05  0.189295545288E+05  0.181411896891E+05  0.173777933984E+05
  0.166398347359E+05  0.159275901007E+05  0.152411617378E+05  0.145804968173E+05  0.139454056220E+05
  0.133355789912E+05  0.127506057105E+05  0.121899870958E+05  0.116531529420E+05  0.111394731301E+05
  0.106482740668E+05  0.101788407125E+05  0.973044232850E+04  0.930231774779E+04  0.889371208115E+04
  0.850385711630E+04  0.813199778801E+04  0.777733492795E+04  0.743921558723E+04  0.711683989559E+04
  0.680951807437E+04  0.651655327432E+04  0.623731835190E+04  0.597111211607E+04  0.571736532578E+04
  0.547542866342E+04  0.524478544347E+04  0.502484749785E+04  0.481511055968E+04  0.461506537251E+04
  0.442422627572E+04  0.424215415657E+04  0.406841013856E+04  0.390257283264E+04  0.374426904131E+04
  0.359310828044E+04  0.344874589473E+04  0.331084844394E+04  0.317909235300E+04  0.305317686618E+04
  0.293281530786E+04  0.281773745240E+04  0.270768572254E+04  0.260241800036E+04  0.250169805262E+04
  0.240531038461E+04  0.231304515437E+04  0.222470753749E+04  0.214010885182E+04  0.205907320936E+04
  0.198142823906E+04  0.190703017325E+04  0.183569506453E+04  0.176732214107E+04  0.170174332510E+04
  0.163884615880E+04  0.157849476743E+04  0.152058905879E+04  0.146500411033E+04  0.141164737899E+04
  0.136040650959E+04  0.131120023169E+04  0.126392795858E+04  0.121851114520E+04  0.117486458651E+04
  0.113291359203E+04  0.109258203607E+04  0.105380277113E+04  0.101650771653E+04  0.980633491961E+03
  0.946120468820E+03  0.912909875716E+03  0.880948942471E+03  0.850183864658E+03  0.820565723827E+03
  0.792046280915E+03  0.764581639764E+03  0.738127267272E+03  0.712642842886E+03  0.688088773759E+03
  0.664427553327E+03  0.641623446003E+03  0.619641944976E+03  0.598450791497E+03  0.578018196918E+03
  0.558314609627E+03  0.539311454631E+03  0.520980962768E+03  0.503297847872E+03  0.486235826147E+03
  0.469772222245E+03  0.453883103484E+03  0.438547171708E+03  0.423742754829E+03  0.409450429586E+03
  0.395649858104E+03  0.382323304692E+03  0.369452930676E+03  0.357021152711E+03  0.345012042353E+03
  0.333409878926E+03  0.322199481670E+03  0.311366243409E+03  0.300896602770E+03  0.290776925936E+03
  0.280994462215E+03  0.271537003396E+03  0.262392473107E+03  0.253549720464E+03  0.244997624825E+03
  0.236725695980E+03  0.228723854313E+03  0.220982243515E+03  0.213491534734E+03  0.206242677104E+03
  0.199226959196E+03  0.192436005793E+03  0.185861725060E+03  0.179496332680E+03  0.173332347180E+03
  0.167362508794E+03  0.161579865604E+03  0.155977679903E+03  0.150549449447E+03  0.145288974557E+03
  0.140190119326E+03  0.135247093223E+03  0.130454356386E+03  0.125806290270E+03  0.121297777874E+03
  0.116923687812E+03  0.112679121082E+03  0.108559363991E+03  0.104559783685E+03  0.100675968060E+03
  0.969036453311E+02  0.932386213490E+02  0.896769088661E+02  0.862146040042E+02  0.828479591691E+02
  0.795732866856E+02  0.763870981432E+02  0.732859316288E+02  0.702664713805E+02  0.673255135871E+02
  0.644599156545E+02  0.616666543352E+02  0.589427852713E+02  0.562854590986E+02  0.536918917916E+02
  0.511594018487E+02  0.486853599444E+02  0.462672357667E+02  0.439025448159E+02  0.415888905624E+02
  0.393239315843E+02  0.371053921510E+02  0.349310577904E+02  0.327987741501E+02  0.307064390306E+02
  0.286520093163E+02  0.266334939285E+02  0.246489481004E+02  0.226964871294E+02  0.207742498323E+02
  0.188804622748E+02  0.170133488556E+02  0.151712071942E+02  0.133523715846E+02  0.115552044053E+02
  0.977812175990E+01  0.801957691785E+01  0.627804931623E+01  0.455206759050E+01  0.284018949892E+01
  0.114101099058E+01 -0.546842741628E+00 -0.222470268924E+01 -0.389387720072E+01 -0.555563610367E+01
 -0.721121658891E+01 -0.886182581561E+01 -0.105086379622E+02 -0.121527945082E+02 -0.137954074004E+02
 -0.154375544934E+02 -0.170802833706E+02 -0.187246098016E+02 -0.203715176356E+02 -0.220219576713E+02
 -0.236768501310E+02 -0.253370807293E+02 -0.270035038018E+02 -0.286769385363E+02 -0.303581719839E+02
 -0.320479553601E+02 -0.337470052026E+02 -0.354560028339E+02 -0.371755927213E+02 -0.389063828367E+02
 -0.406489423154E+02 -0.424038026248E+02 -0.441714547944E+02 -0.459523499226E+02 -0.477468967532E+02
 -0.495554615946E+02 -0.513783666019E+02 -0.532158884418E+02 -0.550682567053E+02 -0.569356525081E+02
 -0.588182061435E+02 -0.607159953424E+02 -0.626290426878E+02 -0.645573127298E+02 -0.665007089407E+02
 -0.684590698280E+02 -0.704321646466E+02 -0.724196883613E+02 -0.744212554992E+02 -0.764363933186E+02
 -0.784645334156E+02 -0.805050019936E+02 -0.825570085711E+02 -0.846196325137E+02 -0.866918074323E+02
 -0.887723031587E+02 -0.908597047747E+02 -0.929523888258E+02 -0.950484962866E+02 -0.971459025767E+02
 -0.992421846684E+02 -0.101334586041E+03 -0.103419980548E+03 -0.105494836937E+03 -0.107555186638E+03
 -0.109596598432E+03 -0.111614165019E+03 -0.113602507607E+03 -0.115555806471E+03 -0.117467866629E+03
 -0.119332229102E+03 -0.121142339099E+03 -0.122891782761E+03 -0.124574603743E+03 -0.126185709603E+03
 -0.127721376184E+03 -0.129179849459E+03 -0.130562037734E+03 -0.131872250035E+03 -0.133118881566E+03
 -0.134314825448E+03 -0.135477193361E+03 -0.136625660077E+03 -0.137778519010E+03 -0.138945648784E+03
 -0.140118549895E+03 -0.141259818189E+03 -0.142297364384E+03 -0.143130166847E+03 -0.143649392398E+03
 -0.143770897058E+03 -0.143466650644E+03 -0.142779438656E+03 -0.141810640105E+03 -0.140684649146E+03
 -0.139508468629E+03 -0.138347630249E+03 -0.137225672082E+03 -0.136138333488E+03 -0.135069530202E+03
 -0.134002012507E+03 -0.132922043453E+03 -0.131820226047E+03 -0.130690627012E+03 -0.129529519310E+03
 -0.128334338705E+03 -0.127103016988E+03 -0.125833658669E+03 -0.124524453829E+03 -0.123173726349E+03
 -0.121780033193E+03 -0.120342269538E+03 -0.118859752501E+03 -0.117332272995E+03 -0.115760124914E+03
 -0.114144101355E+03 -0.112485483290E+03 -0.110786005404E+03 -0.109047822227E+03 -0.107273460951E+03
 -0.105465777476E+03 -0.103627905378E+03 -0.101763207742E+03 -0.998752258631E+02 -0.979676298105E+02
 -0.960441691600E+02 -0.941086225348E+02 -0.921647516109E+02 -0.902162521482E+02 -0.882667076467E+02
 -0.863195482087E+02 -0.843780048830E+02 -0.824450744932E+02 -0.805234851994E+02 -0.786156712732E+02
 -0.767237567928E+02 -0.748495516535E+02 -0.729945622392E+02 -0.711600178293E+02 -0.693469132041E+02
 -0.675560653957E+02 -0.657881807429E+02 -0.640439269470E+02 -0.623240028446E+02 -0.606291995903E+02
 -0.589604468790E+02 -0.573188399977E+02 -0.557056454730E+02 -0.541222852492E+02 -0.525703011285E+02
 -0.510513025120E+02 -0.495669012821E+02 -0.481186381574E+02 -0.467079052121E+02 -0.453358696671E+02
 -0.440034044777E+02 -0.427110315137E+02 -0.414588828986E+02 -0.402466850424E+02 -0.390737679271E+02
 -0.379390994445E+02 -0.368413415363E+02 -0.357789222033E+02 -0.347501157601E+02 -0.337531233439E+02
 -0.327861466199E+02 -0.318474495005E+02 -0.309354049914E+02 -0.300485264856E+02 -0.291854845899E+02
 -0.283451117204E+02 -0.275263972501E+02 -0.267284760438E+02 -0.259506129403E+02 -0.251921852815E+02
 -0.244526650785E+02 -0.237316019165E+02 -0.230286072881E+02 -0.223433407176E+02 -0.216754978054E+02
 -0.210248001598E+02 -0.203909870876E+02 -0.197738088642E+02 -0.191730213824E+02 -0.185883819864E+02
 -0.180196463043E+02 -0.174665659194E+02
 core charge-density
  0.625549834773E-05  0.666800503046E-05  0.710770693649E-05  0.757639627830E-05  0.807598331150E-05
  0.860850410282E-05  0.917612880907E-05  0.978117049962E-05  0.104260945586E-04  0.111135287054E-04
  0.118462736723E-04  0.126273145842E-04  0.134598330854E-04  0.143472202623E-04  0.152930904146E-04
  0.163012957304E-04  0.173759419244E-04  0.185214049015E-04  0.197423485145E-04  0.210437434859E-04
  0.224308875702E-04  0.239094270387E-04  0.254853795725E-04  0.271651586550E-04  0.289555995636E-04
  0.308639870632E-04  0.328980849139E-04  0.350661673100E-04  0.373770523778E-04  0.398401378645E-04
  0.424654391625E-04  0.452636298208E-04  0.482460847049E-04  0.514249259776E-04  0.548130720860E-04
  0.584242899460E-04  0.622732505377E-04  0.663755881274E-04  0.707479633574E-04  0.754081304474E-04
  0.803750087831E-04  0.856687591678E-04  0.913108650448E-04  0.973242190074E-04  0.103733214946E-03
  0.110563846188E-03  0.117843810020E-03  0.125602619014E-03  0.133871719579E-03  0.142684618218E-03
  0.152077015982E-03  0.162086951644E-03  0.172754954166E-03  0.184124205036E-03  0.196240711132E-03
  0.209153488770E-03  0.222914759660E-03  0.237580159532E-03  0.253208960236E-03  0.269864306193E-03
  0.287613466085E-03  0.306528100788E-03  0.326684548546E-03  0.348164128521E-03  0.371053463844E-03
  0.395444825445E-03  0.421436497940E-03  0.449133168998E-03  0.478646343650E-03  0.510094785131E-03
  0.543604983902E-03  0.579311656655E-03  0.617358277124E-03  0.657897640797E-03  0.701092465490E-03
  0.747116030214E-03  0.796152854521E-03  0.848399421024E-03  0.904064943601E-03  0.963372184282E-03
  0.102655832163E-02  0.109387587398E-02  0.116559368076E-02  0.124199794551E-02  0.132339334439E-02
  0.141010420411E-02  0.150247575353E-02  0.160087545343E-02  0.170569440904E-02  0.181734887053E-02
  0.193628182645E-02  0.206296469593E-02  0.219789912541E-02  0.234161889602E-02  0.249469194832E-02
  0.265772253114E-02  0.283135348191E-02  0.301626864601E-02  0.321319544336E-02  0.342290759058E-02
  0.364622798782E-02  0.388403177946E-02  0.413724959877E-02  0.440687100673E-02  0.469394813594E-02
  0.499959955108E-02  0.532501433790E-02  0.567145643310E-02  0.604026920857E-02  0.643288032324E-02
  0.685080685741E-02  0.729566074403E-02  0.776915451294E-02  0.827310736395E-02  0.880945158622E-02
  0.938023934073E-02  0.998764982515E-02  0.106339968389E-01  0.113217367688E-01  0.120534770154E-01
  0.128319848807E-01  0.136601969386E-01  0.145412289107E-01  0.154783860700E-01  0.164751741952E-01
  0.175353110992E-01  0.186627387576E-01  0.198616360585E-01  0.211364322012E-01  0.224918207665E-01
  0.239327744849E-01  0.254645607262E-01  0.270927577354E-01  0.288232716393E-01  0.306623542463E-01
  0.326166216629E-01  0.346930737474E-01  0.368991144208E-01  0.392425728547E-01  0.417317255497E-01
  0.443753193214E-01  0.471825952013E-01  0.501633132638E-01  0.533277783799E-01  0.566868668986E-01
  0.602520542493E-01  0.640354434545E-01  0.680497945329E-01  0.723085547678E-01  0.768258898099E-01
  0.816167155651E-01  0.866967308197E-01  0.920824505353E-01  0.977912397351E-01  0.103841347892E+00
  0.110251943712E+00  0.117043150181E+00  0.124236079746E+00  0.131852869454E+00  0.139916715877E+00
  0.148451909595E+00  0.157483869030E+00  0.167039173333E+00  0.177145594063E+00  0.187832125314E+00
  0.199129011925E+00  0.211067775390E+00  0.223681237018E+00  0.237003537861E+00  0.251070154895E+00
  0.265917912862E+00  0.281584991174E+00  0.298110925183E+00  0.315536601090E+00  0.333904243727E+00
  0.353257396336E+00  0.373640891470E+00  0.395100812028E+00  0.417684441421E+00  0.441440201756E+00
  0.466417578917E+00  0.492667033311E+00  0.520239895026E+00  0.549188242087E+00  0.579564760420E+00
  0.611422584151E+00  0.644815114720E+00  0.679795817435E+00  0.716417993867E+00  0.754734528645E+00
  0.794797609172E+00  0.836658416756E+00  0.880366787762E+00  0.925970843486E+00  0.973516587417E+00
  0.102304746886E+01  0.107460391186E+01  0.112822280879E+01  0.118393697791E+01  0.124177458474E+01
  0.130175852731E+01  0.136390578560E+01  0.142822673623E+01  0.149472443356E+01  0.156339385909E+01
  0.163422114178E+01  0.170718275227E+01  0.178224467496E+01  0.185936156253E+01  0.193847587857E+01
  0.201951703446E+01  0.210240052821E+01  0.218702709338E+01  0.227328186773E+01  0.236103359206E+01
  0.245013385084E+01  0.254041636756E+01  0.263169636840E+01  0.272377002939E+01  0.281641402277E+01
  0.290938517951E+01  0.300242028543E+01  0.309523602946E+01  0.318752912236E+01  0.327897660526E+01
  0.336923636659E+01  0.345794788610E+01  0.354473322391E+01  0.362919827117E+01  0.371093427773E+01
  0.378951966995E+01  0.386452216946E+01  0.393550122044E+01  0.400201072951E+01  0.406360211798E+01
  0.411982768169E+01  0.417024424784E+01  0.421441711293E+01  0.425192423895E+01  0.428236067847E+01
  0.430534319207E+01  0.432051501388E+01  0.432755071371E+01  0.432616109652E+01  0.431609807282E+01
  0.429715942646E+01  0.426919340030E+01  0.423210301446E+01  0.418585002797E+01  0.413045845132E+01
  0.406601751648E+01  0.399268401161E+01  0.391068389027E+01  0.382031307065E+01  0.372193734783E+01
  0.361599135309E+01  0.350297650770E+01  0.338345793507E+01  0.325806031466E+01  0.312746268272E+01
  0.299239220956E+01  0.285361700894E+01  0.271193806267E+01  0.256818037128E+01  0.242318346850E+01
  0.227779146284E+01  0.213284279210E+01  0.198915989043E+01  0.184753899016E+01  0.170874026947E+01
  0.157347856300E+01  0.144241483035E+01  0.131614854561E+01  0.119521112339E+01  0.108006043580E+01
  0.971076416602E+00  0.868557720278E+00  0.772719446284E+00  0.683692073177E+00  0.601521935215E+00
  0.526173696225E+00  0.457535189698E+00  0.395424650817E+00  0.339599878315E+00  0.289768462786E+00
  0.245598123336E+00  0.206726459547E+00  0.172769863026E+00  0.143331658906E+00  0.118009628923E+00
  0.964029804771E-01  0.781187116277E-01  0.627772597360E-01  0.500173177769E-01  0.394997340760E-01
  0.309104559082E-01  0.239625220484E-01  0.183971483157E-01  0.139839815670E-01  0.105206212258E-01
  0.783152351440E-02  0.576641246844E-02  0.419832404102E-02  0.302140581083E-02  0.214858586519E-02
  0.150921142073E-02  0.104674189060E-02  0.716563679615E-03  0.483976210018E-03  0.322381630461E-03
  0.211695213144E-03  0.136980223621E-03  0.873004188041E-04  0.547754095664E-04  0.338188198116E-04
  0.205362242348E-04  0.122588806356E-04  0.718986064052E-05  0.414088624546E-05  0.234058880470E-05
  0.129766796585E-05  0.705257746188E-06  0.375498683592E-06  0.195734189800E-06  0.998239738991E-07
  0.497754873703E-07  0.242494266994E-07  0.115338788408E-07  0.535191862631E-08  0.242083588431E-08
  0.106657986918E-08  0.457333094816E-09  0.190682259329E-09  0.772398275178E-10  0.303688154904E-10
  0.115786767161E-10  0.427670909637E-11  0.152876609799E-11  0.528322171385E-12  0.176324824774E-12
  0.567674173964E-13  0.176097553853E-13  0.525721959721E-14  0.150858460345E-14  0.415563715107E-15
  0.109744952184E-15  0.277469656242E-16  0.670680098186E-17  0.154756453186E-17  0.340376048323E-18
  0.712472447356E-19  0.141702017331E-19  0.267337816327E-20  0.477612433480E-21  0.806589344905E-22
  0.128527880519E-22  0.192881896028E-23  0.272075946858E-24  0.360016081062E-25  0.445951382854E-26
  0.516011199631E-27  0.556518007526E-28  0.558161154107E-29  0.519374207451E-30  0.447289631952E-31
  0.355629990309E-32  0.260367891573E-33  0.175064565194E-34  0.107804238351E-35  0.606270898466E-37
  0.310468696030E-38  0.144336180909E-39  0.607271593111E-41  0.230484607408E-42  0.786517690571E-44
  0.240488010869E-45  0.656539175165E-47
 kinetic energy-density
  0.132175359298E+00  0.133934922334E+00  0.135761433132E+00  0.137657992670E+00  0.139627696619E+00
  0.141673927295E+00  0.143799500496E+00  0.146008676819E+00  0.148304768593E+00  0.150692037550E+00
  0.153174592370E+00  0.155756926490E+00  0.158443724597E+00  0.161239998599E+00  0.164150979471E+00
  0.167182160118E+00  0.170339406432E+00  0.173628825911E+00  0.177056890152E+00  0.180630402417E+00
  0.184356546754E+00  0.188242882397E+00  0.192297380534E+00  0.196528442009E+00  0.200944923915E+00
  0.205556162290E+00  0.210372007069E+00  0.215402842558E+00  0.220659635012E+00  0.226153936007E+00
  0.231897972674E+00  0.237904604375E+00  0.244187471325E+00  0.250760917296E+00  0.257640162069E+00
  0.264841167874E+00  0.272381153950E+00  0.280277663180E+00  0.288549849880E+00  0.297217874330E+00
  0.306302839392E+00  0.315827114105E+00  0.325814512040E+00  0.336290191996E+00  0.347280782458E+00
  0.358814325037E+00  0.370920696609E+00  0.383631528596E+00  0.396980261001E+00  0.411002406416E+00
  0.425735441776E+00  0.441219103243E+00  0.457495823050E+00  0.474609969929E+00  0.492609215294E+00
  0.511543740684E+00  0.531466742719E+00  0.552434833566E+00  0.574507969902E+00  0.597749679366E+00
  0.622227413642E+00  0.648012684333E+00  0.675181462413E+00  0.703814274030E+00  0.733996641234E+00
  0.765819261046E+00  0.799378432777E+00  0.834776340370E+00  0.872121544375E+00  0.911529213993E+00
  0.953121528021E+00  0.997028613042E+00  0.104338807052E+01  0.109234610786E+01  0.114405866183E+01
  0.119869068044E+01  0.125641724924E+01  0.131742479440E+01  0.138191086663E+01  0.145008602723E+01
  0.152217267487E+01  0.159840841209E+01  0.167904466533E+01  0.176434892232E+01  0.185460533706E+01
  0.195011564886E+01  0.205120035997E+01  0.215820007462E+01  0.227147662631E+01  0.239141423813E+01
  0.251842134620E+01  0.265293152534E+01  0.279540559147E+01  0.294633308413E+01  0.310623394117E+01
  0.327566044774E+01  0.345519942483E+01  0.364547413422E+01  0.384714651844E+01  0.406091980636E+01
  0.428754092445E+01  0.452780303528E+01  0.478254865784E+01  0.505267250232E+01  0.533912470905E+01
  0.564291416100E+01  0.596511230625E+01  0.630685638674E+01  0.666935438494E+01  0.705388826939E+01
  0.746181864518E+01  0.789459086696E+01  0.835373750037E+01  0.884088626747E+01  0.935776370686E+01
  0.990620206875E+01  0.104881452327E+02  0.111056553832E+02  0.117609200093E+02  0.124562589936E+02
  0.131941322519E+02  0.139771490721E+02  0.148080742975E+02  0.156898399262E+02  0.166255529959E+02
  0.176185058382E+02  0.186721871477E+02  0.197902923809E+02  0.209767356465E+02  0.222356617535E+02
  0.235714589633E+02  0.249887727054E+02  0.264925187028E+02  0.280878986315E+02  0.297804145496E+02
  0.315758858195E+02  0.334804646744E+02  0.355006548639E+02  0.376433285913E+02  0.399157465039E+02
  0.423255765878E+02  0.448809147558E+02  0.475903062309E+02  0.504627671938E+02  0.535078069378E+02
  0.567354538836E+02  0.601562740015E+02  0.637814033508E+02  0.676225669762E+02  0.716921078905E+02
  0.760030148055E+02  0.805689455143E+02  0.854042611492E+02  0.905240453913E+02  0.959441427845E+02
  0.101681177977E+03  0.107752592371E+03  0.114176666596E+03  0.120972552773E+03  0.128160301057E+03
  0.135760886729E+03  0.143796237719E+03  0.152289259589E+03  0.161263859378E+03  0.170744968292E+03
  0.180758563951E+03  0.191331684769E+03  0.202492449472E+03  0.214270066618E+03  0.226694844481E+03
  0.239798194400E+03  0.253612631141E+03  0.268171766650E+03  0.283510298141E+03  0.299663989133E+03
  0.316669644200E+03  0.334565073015E+03  0.353389047560E+03  0.373181248382E+03  0.393982198281E+03
  0.415833186955E+03  0.438776179997E+03  0.462853713912E+03  0.488108777503E+03  0.514584674687E+03
  0.542324868355E+03  0.571372814773E+03  0.601771757830E+03  0.633564525793E+03  0.666793288738E+03
  0.701499294335E+03  0.737722589266E+03  0.775501699491E+03  0.814873296137E+03  0.855871822522E+03
  0.898529107918E+03  0.942873929636E+03  0.988931570548E+03  0.103672333103E+04  0.108626601193E+04
  0.113757137908E+04  0.119064559064E+04  0.124548860113E+04  0.130209354210E+04  0.136044607669E+04
  0.142052374137E+04  0.148229526392E+04  0.154571987820E+04  0.161074662308E+04  0.167731364973E+04
  0.174534752686E+04  0.181476256712E+04  0.188546016237E+04  0.195732816583E+04  0.203024029704E+04
  0.210405561400E+04  0.217861803447E+04  0.225375594384E+04  0.232928188291E+04  0.240499234224E+04
  0.248066767364E+04  0.255607213027E+04  0.263095405373E+04  0.270504622266E+04  0.277806637569E+04
  0.284971792232E+04  0.291969085993E+04  0.298766289826E+04  0.305330081418E+04  0.311626203317E+04
  0.317619645553E+04  0.323274851735E+04  0.328555949697E+04  0.333427005860E+04  0.337852302635E+04
  0.341796637497E+04  0.345225642472E+04  0.348106121747E+04  0.350406404142E+04  0.352096708619E+04
  0.353149517385E+04  0.353539954144E+04  0.353246161090E+04  0.352249670885E+04  0.350535766831E+04
  0.348093826265E+04  0.344917639893E+04  0.341005701605E+04  0.336361461286E+04  0.330993534594E+04
  0.324915863230E+04  0.318147819044E+04  0.310714246912E+04  0.302645440370E+04  0.293977046042E+04
  0.284749892621E+04  0.275009742069E+04  0.264806960925E+04  0.254196111851E+04  0.243235466160E+04
  0.231986440322E+04  0.220512961015E+04  0.208880765323E+04  0.197156645037E+04  0.185407646003E+04
  0.173700235755E+04  0.162099460999E+04  0.150668096519E+04  0.139465830267E+04  0.128548488438E+04
  0.117967334177E+04  0.107768467666E+04  0.979923602975E+03  0.886735570052E+03  0.798405742029E+03
  0.715159970065E+03  0.637167311145E+03  0.564542992801E+03  0.497350257609E+03  0.435599805156E+03
  0.379246857249E+03  0.328187666872E+03  0.282258420112E+03  0.241239057774E+03  0.204862611282E+03
  0.172828208135E+03  0.144814513272E+03  0.120490951017E+03  0.995258554277E+02  0.815921604920E+02
  0.663716392462E+02  0.535583898124E+02  0.428618420926E+02  0.340093008916E+02  0.267479560236E+02
  0.208462992017E+02  0.160949283404E+02  0.123067614073E+02  0.931671333272E+01  0.698090990260E+01
  0.517552367589E+01  0.379532124129E+01  0.275201014992E+01  0.197246888631E+01  0.139693522757E+01
  0.977217983846E+00  0.674985359165E+00  0.460170692067E+00  0.309524006907E+00  0.205326234266E+00
  0.134272727265E+00  0.865241481836E-01  0.549161363228E-01  0.343144071897E-01  0.210989668890E-01
  0.127597319673E-01  0.758574121990E-02  0.443101968700E-02  0.254169790688E-02  0.143092285464E-02
  0.790186711125E-03  0.427764798256E-03  0.226868357364E-03  0.117803708430E-03  0.598512600186E-04
  0.297317424871E-04  0.144309058083E-04  0.683874100383E-05  0.316184581695E-05  0.142511201228E-05
  0.625679306603E-06  0.267355006762E-06  0.111092838351E-06  0.448497786641E-07  0.175757437694E-07
  0.667937531847E-08  0.245924970219E-08  0.876346295166E-09  0.301927106320E-09  0.100464605997E-09
  0.322495741201E-10  0.997546854204E-11  0.296976514779E-11  0.849871705228E-12  0.233491659841E-12
  0.615036796645E-13  0.155112822825E-13  0.374020991069E-14  0.861013369860E-15  0.188943581705E-15
  0.394624170262E-16  0.783183070142E-17  0.147450788513E-17  0.262898472980E-18  0.443113920182E-19
  0.704748096600E-20  0.105565824354E-20  0.148640629620E-21  0.196337661526E-22  0.242784564648E-23
  0.280453473054E-24  0.301970272345E-25  0.302372214589E-26  0.280913690698E-27  0.241548025437E-28
  0.191754674412E-29  0.140177265917E-30  0.941107945358E-32  0.578675660952E-33  0.324960095534E-34
  0.166168703665E-35  0.771395585826E-37  0.324082732323E-38  0.122824240942E-39  0.418519451757E-41
  0.127778710765E-42  0.348315951701E-44
 mkinetic energy-density pseudized
  0.334210080475E-07  0.356298826206E-07  0.379847470105E-07  0.404952500339E-07  0.431716782210E-07
  0.460249979636E-07  0.490669004484E-07  0.523098495607E-07  0.557671329536E-07  0.594529164932E-07
  0.633823023015E-07  0.675713906359E-07  0.720373458583E-07  0.767984667641E-07  0.818742615602E-07
  0.872855277972E-07  0.930544375856E-07  0.992046284436E-07  0.105761300150E-06  0.112751317995E-06
  0.120203322863E-06  0.128147848581E-06  0.136617447029E-06  0.145646821520E-06  0.155272968990E-06
  0.165535331591E-06  0.176475958301E-06  0.188139677214E-06  0.200574279222E-06  0.213830713827E-06
  0.227963297908E-06  0.243029938272E-06  0.259092368926E-06  0.276216404024E-06  0.294472207532E-06
  0.313934580721E-06  0.334683268652E-06  0.356803286925E-06  0.380385270024E-06  0.405525842678E-06
  0.432328015771E-06  0.460901608420E-06  0.491363697943E-06  0.523839099574E-06  0.558460877876E-06
  0.595370891961E-06  0.634720376740E-06  0.676670562590E-06  0.721393335978E-06  0.769071943747E-06
  0.819901743945E-06  0.874091006286E-06  0.931861765505E-06  0.993450731124E-06  0.105911025734E-05
  0.112910937700E-05  0.120373490396E-05  0.128329260825E-05  0.136810846892E-05  0.145853000970E-05
  0.155492772295E-05  0.165769658770E-05  0.176725768801E-05  0.188405993828E-05  0.200858192270E-05
  0.214133385607E-05  0.228285967442E-05  0.243373926365E-05  0.259459083558E-05  0.276607346090E-05
  0.294888976969E-05  0.314378883029E-05  0.335156921847E-05  0.357308228952E-05  0.380923566645E-05
  0.406099695888E-05  0.432939772761E-05  0.461553771124E-05  0.492058933216E-05  0.524580250031E-05
  0.559250973439E-05  0.596213162162E-05  0.635618263825E-05  0.677627735479E-05  0.722413705133E-05
  0.770159677004E-05  0.821061283380E-05  0.875327086173E-05  0.933179431437E-05  0.994855360375E-05
  0.106060758054E-04  0.113070550121E-04  0.120543633723E-04  0.128510628578E-04  0.137004178085E-04
  0.146059083075E-04  0.155712444390E-04  0.166003814888E-04  0.176975361496E-04  0.188672037968E-04
  0.201141769059E-04  0.214435646878E-04  0.228608140206E-04  0.243717317653E-04  0.259825085557E-04
  0.276997441612E-04  0.295304745246E-04  0.314822005869E-04  0.335629190171E-04  0.357811549721E-04
  0.381459970220E-04  0.406671343819E-04  0.433548966050E-04  0.462202958978E-04  0.492750722309E-04
  0.525317414313E-04  0.560036464508E-04  0.597050120226E-04  0.636510029287E-04  0.678577861163E-04
  0.723425969184E-04  0.771238096484E-04  0.822210128583E-04  0.876550895687E-04  0.934483027978E-04
  0.996243867394E-04  0.106208643964E-03  0.113228049041E-03  0.120711358997E-03  0.128689231084E-03
  0.137194348304E-03  0.146261553244E-03  0.155927990729E-03  0.166233259908E-03  0.177219576370E-03
  0.188931944972E-03  0.201418344065E-03  0.214729921891E-03  0.228921205932E-03  0.244050326078E-03
  0.260179252527E-03  0.277374049373E-03  0.295705144926E-03  0.315247619868E-03  0.336081514407E-03
  0.358292155693E-03  0.381970506822E-03  0.407213538840E-03  0.434124627285E-03  0.462813974843E-03
  0.493399061868E-03  0.526005126574E-03  0.560765676855E-03  0.597823035812E-03  0.637328923186E-03
  0.679445075065E-03  0.724343904361E-03  0.772209204734E-03  0.823236900801E-03  0.877635847660E-03
  0.935628682954E-03  0.997452734893E-03  0.106336098991E-02  0.113362312381E-02  0.120852660055E-02
  0.128837784311E-02  0.137350348101E-02  0.146425167962E-02  0.156099355640E-02  0.166412468981E-02
  0.177406672687E-02  0.189126909568E-02  0.201621082972E-02  0.214940251111E-02  0.229138834051E-02
  0.244274834164E-02  0.260410070926E-02  0.277610430960E-02  0.295946134293E-02  0.315492017872E-02
  0.336327837423E-02  0.358538588807E-02  0.382214850112E-02  0.407453145769E-02  0.434356334090E-02
  0.463034019651E-02  0.493602992104E-02  0.526187693013E-02  0.560920712453E-02  0.597943317189E-02
  0.637406012345E-02  0.679469138594E-02  0.724303506994E-02  0.772091073704E-02  0.823025656950E-02
  0.877313698691E-02  0.935175073607E-02  0.996843948089E-02  0.106256969210E-01  0.113261784684E-01
  0.120727115136E-01  0.128683063121E-01  0.137161675262E-01  0.146197064553E-01  0.155825539903E-01
  0.166085743299E-01  0.177018794942E-01  0.188668446755E-01  0.201081244643E-01  0.214306699899E-01
  0.228397470138E-01  0.243409550168E-01  0.259402473153E-01  0.276439522468E-01  0.294587954584E-01
  0.313919233308E-01  0.334509275709E-01  0.356438709954E-01  0.379793145294E-01  0.404663454335E-01
  0.431146067678E-01  0.459343280897E-01  0.489363573748E-01  0.521321941327E-01  0.555340236784E-01
  0.591547524986E-01  0.630080446325E-01  0.671083589601E-01  0.714709872651E-01  0.761120929019E-01
  0.810487498599E-01  0.862989819744E-01  0.918818019791E-01  0.978172500400E-01  0.104126431341E+00
  0.110831552219E+00  0.117955954250E+00  0.125524145609E+00  0.133561828893E+00  0.142095924486E+00
  0.151154588405E+00  0.160767223399E+00  0.170964481909E+00  0.181778259289E+00  0.193241675483E+00
  0.205389043106E+00  0.218255819604E+00  0.231878540894E+00  0.246294733548E+00  0.261542802248E+00
  0.277661888861E+00  0.294691699072E+00  0.312672292104E+00  0.331643828554E+00  0.351646270954E+00
  0.372719031124E+00  0.394900557899E+00  0.418227858329E+00  0.442735944921E+00  0.468457201095E+00
  0.495420656567E+00  0.523651164113E+00  0.553168468922E+00  0.583986161733E+00  0.616110507118E+00
  0.649539138720E+00  0.684259614050E+00  0.720247822696E+00  0.757466243561E+00  0.795862049219E+00
  0.835365058680E+00  0.875885544136E+00  0.917311902523E+00  0.959508209494E+00  0.100231168154E+01
  0.104553008204E+01  0.108893911892E+01  0.113227989576E+01  0.117525649483E+01  0.121753378937E+01
  0.125873560436E+01  0.129844336912E+01  0.133619543170E+01  0.137148723362E+01  0.140377257315E+01
  0.143246621558E+01  0.145694813685E+01  0.147656971200E+01  0.149066217789E+01  0.149854770678E+01
  0.149955341954E+01  0.149302863709E+01  0.147836560969E+01  0.145502386620E+01  0.142255818005E+01
  0.138064994345E+01  0.132914146481E+01  0.126807234492E+01  0.119771663421E+01  0.111861892019E+01
  0.103162683893E+01  0.937916755622E+00  0.839008538024E+00  0.736764493797E+00  0.633366724315E+00
  0.531266462252E+00  0.433098547267E+00  0.341554238892E+00  0.259206305370E+00  0.188282049278E+00
  0.130382965603E+00  0.861544283292E-01  0.549155045124E-01  0.343144071897E-01  0.210989668890E-01
  0.127597319673E-01  0.758574121990E-02  0.443101968700E-02  0.254169790688E-02  0.143092285464E-02
  0.790186711125E-03  0.427764798256E-03  0.226868357364E-03  0.117803708430E-03  0.598512600186E-04
  0.297317424871E-04  0.144309058083E-04  0.683874100383E-05  0.316184581695E-05  0.142511201228E-05
  0.625679306603E-06  0.267355006762E-06  0.111092838351E-06  0.448497786641E-07  0.175757437694E-07
  0.667937531847E-08  0.245924970219E-08  0.876346295166E-09  0.301927106320E-09  0.100464605997E-09
  0.322495741201E-10  0.997546854204E-11  0.296976514779E-11  0.849871705228E-12  0.233491659841E-12
  0.615036796645E-13  0.155112822825E-13  0.374020991069E-14  0.861013369860E-15  0.188943581705E-15
  0.394624170262E-16  0.783183070142E-17  0.147450788513E-17  0.262898472980E-18  0.443113920182E-19
  0.704748096600E-20  0.105565824354E-20  0.148640629620E-21  0.196337661526E-22  0.242784564648E-23
  0.280453473054E-24  0.301970272345E-25  0.302372214589E-26  0.280913690698E-27  0.241548025437E-28
  0.191754674412E-29  0.140177265917E-30  0.941107945358E-32  0.578675660952E-33  0.324960095534E-34
  0.166168703665E-35  0.771395585826E-37  0.324082732323E-38  0.122824240942E-39  0.418519451757E-41
  0.127778710765E-42  0.348315951701E-44
 local pseudopotential core
 -0.235270267363E+03 -0.235271097422E+03 -0.235271901339E+03 -0.235272679939E+03 -0.235273434018E+03
 -0.235274164350E+03 -0.235274871681E+03 -0.235275556736E+03 -0.235276220218E+03 -0.235276862804E+03
 -0.235277485154E+03 -0.235278087905E+03 -0.235278671673E+03 -0.235279237058E+03 -0.235279784637E+03
 -0.235280314972E+03 -0.235280828606E+03 -0.235281326065E+03 -0.235281807858E+03 -0.235282274479E+03
 -0.235282726405E+03 -0.235283164100E+03 -0.235283588011E+03 -0.235283998574E+03 -0.235284396208E+03
 -0.235284781321E+03 -0.235285154307E+03 -0.235285515548E+03 -0.235285865414E+03 -0.235286204264E+03
 -0.235286532444E+03 -0.235286850292E+03 -0.235287158131E+03 -0.235287456278E+03 -0.235287745039E+03
 -0.235288024708E+03 -0.235288295572E+03 -0.235288557910E+03 -0.235288811989E+03 -0.235289058070E+03
 -0.235289296405E+03 -0.235289527239E+03 -0.235289750807E+03 -0.235289967340E+03 -0.235290177058E+03
 -0.235290380178E+03 -0.235290576906E+03 -0.235290767445E+03 -0.235290951990E+03 -0.235291130730E+03
 -0.235291303849E+03 -0.235291471524E+03 -0.235291633927E+03 -0.235291791225E+03 -0.235291943579E+03
 -0.235292091146E+03 -0.235292234076E+03 -0.235292372517E+03 -0.235292506611E+03 -0.235292636496E+03
 -0.235292762305E+03 -0.235292884167E+03 -0.235293002208E+03 -0.235293116549E+03 -0.235293227308E+03
 -0.235293334599E+03 -0.235293438533E+03 -0.235293539216E+03 -0.235293636753E+03 -0.235293731244E+03
 -0.235293822787E+03 -0.235293911477E+03 -0.235293997405E+03 -0.235294080660E+03 -0.235294161329E+03
 -0.235294239496E+03 -0.235294315242E+03 -0.235294388646E+03 -0.235294459784E+03 -0.235294528732E+03
 -0.235294595560E+03 -0.235294660340E+03 -0.235294723140E+03 -0.235294784026E+03 -0.235294843062E+03
 -0.235294900311E+03 -0.235294955835E+03 -0.235295009692E+03 -0.235295061941E+03 -0.235295112638E+03
 -0.235295161839E+03 -0.235295209596E+03 -0.235295255962E+03 -0.235295300990E+03 -0.235295344728E+03
 -0.235295387226E+03 -0.235295428532E+03 -0.235295468693E+03 -0.235295507757E+03 -0.235295545767E+03
 -0.235295582770E+03 -0.235295618809E+03 -0.235295653928E+03 -0.235295688170E+03 -0.235295721579E+03
 -0.235295754195E+03 -0.235295786063E+03 -0.235295817223E+03 -0.235295847718E+03 -0.235295877588E+03
 -0.235295906877E+03 -0.235295935626E+03 -0.235295963878E+03 -0.235295991675E+03 -0.235296019060E+03
 -0.235296046076E+03 -0.235296072769E+03 -0.235296099183E+03 -0.235296125363E+03 -0.235296151358E+03
 -0.235296177214E+03 -0.235296202982E+03 -0.235296228711E+03 -0.235296254455E+03 -0.235296280267E+03
 -0.235296306204E+03 -0.235296332322E+03 -0.235296358684E+03 -0.235296385350E+03 -0.235296412387E+03
 -0.235296439863E+03 -0.235296467849E+03 -0.235296496421E+03 -0.235296525656E+03 -0.235296555637E+03
 -0.235296586451E+03 -0.235296618189E+03 -0.235296650946E+03 -0.235296684825E+03 -0.235296719931E+03
 -0.235296756379E+03 -0.235296794286E+03 -0.235296833780E+03 -0.235296874995E+03 -0.235296918070E+03
 -0.235296963158E+03 -0.235297010416E+03 -0.235297060013E+03 -0.235297112129E+03 -0.235297166953E+03
 -0.235297224688E+03 -0.235297285547E+03 -0.235297349758E+03 -0.235297417564E+03 -0.235297489221E+03
 -0.235297565005E+03 -0.235297645205E+03 -0.235297730131E+03 -0.235297820112E+03 -0.235297915500E+03
 -0.235298016667E+03 -0.235298124010E+03 -0.235298237952E+03 -0.235298358942E+03 -0.235298487459E+03
 -0.235298624012E+03 -0.235298769145E+03 -0.235298923435E+03 -0.235299087497E+03 -0.235299261986E+03
 -0.235299447599E+03 -0.235299645080E+03 -0.235299855218E+03 -0.235300078855E+03 -0.235300316887E+03
 -0.235300570269E+03 -0.235300840017E+03 -0.235301127212E+03 -0.235301433006E+03 -0.235301758625E+03
 -0.235302105372E+03 -0.235302474638E+03 -0.235302867899E+03 -0.235303286729E+03 -0.235303732802E+03
 -0.235304207897E+03 -0.235304713911E+03 -0.235305252858E+03 -0.235305826882E+03 -0.235306438262E+03
 -0.235307089422E+03 -0.235307782939E+03 -0.235308521551E+03 -0.235309308170E+03 -0.235310145887E+03
 -0.235311037987E+03 -0.235311987959E+03 -0.235312999506E+03 -0.235314076560E+03 -0.235315223292E+03
 -0.235316444125E+03 -0.235317743753E+03 -0.235319127146E+03 -0.235320599574E+03 -0.235322166617E+03
 -0.235323834181E+03 -0.235325608513E+03 -0.235327496222E+03 -0.235329504289E+03 -0.235331640088E+03
 -0.235333911399E+03 -0.235336326427E+03 -0.235338893816E+03 -0.235341622665E+03 -0.235344522540E+03
 -0.235347603492E+03 -0.235350876061E+03 -0.235354351295E+03 -0.235358040746E+03 -0.235361956484E+03
 -0.235366111091E+03 -0.235370517659E+03 -0.235375189777E+03 -0.235380141520E+03 -0.235385387421E+03
 -0.235390942438E+03 -0.235396821912E+03 -0.235403041511E+03 -0.235409617154E+03 -0.235416564931E+03
 -0.235423900989E+03 -0.235431641403E+03 -0.235439802022E+03 -0.235448398276E+03 -0.235457444961E+03
 -0.235466955967E+03 -0.235476943976E+03 -0.235487420097E+03 -0.235498393443E+03 -0.235509870637E+03
 -0.235521855241E+03 -0.235534347097E+03 -0.235547341555E+03 -0.235560828598E+03 -0.235574791822E+03
 -0.235589207273E+03 -0.235604042106E+03 -0.235619253061E+03 -0.235634784712E+03 -0.235650567468E+03
 -0.235666515306E+03 -0.235682523181E+03 -0.235698464086E+03 -0.235714185723E+03 -0.235729506723E+03
 -0.235744212374E+03 -0.235758049792E+03 -0.235770722482E+03 -0.235781884202E+03 -0.235791132066E+03
 -0.235797998807E+03 -0.235801944092E+03 -0.235802344818E+03 -0.235798484267E+03 -0.235789540017E+03
 -0.235774570504E+03 -0.235752500103E+03 -0.235722102609E+03 -0.235681983012E+03 -0.235630557412E+03
 -0.235566030987E+03 -0.235486373889E+03 -0.235389294973E+03 -0.235272213292E+03 -0.235132227297E+03
 -0.234966081747E+03 -0.234770132354E+03 -0.234540308267E+03 -0.234272072579E+03 -0.233960381118E+03
 -0.233599639931E+03 -0.233183661976E+03 -0.232705623742E+03 -0.232158022705E+03 -0.231532636757E+03
 -0.230820487068E+03 -0.230011806127E+03 -0.229096013149E+03 -0.228061699472E+03 -0.226896627120E+03
 -0.225587744383E+03 -0.224121222988E+03 -0.222482522396E+03 -0.220656487781E+03 -0.218627489526E+03
 -0.216379613436E+03 -0.213896912443E+03 -0.211163732130E+03 -0.208165123914E+03 -0.204887360840E+03
 -0.201318571297E+03 -0.197449505078E+03 -0.193274443215E+03 -0.188792257145E+03 -0.184007612751E+03
 -0.178932299547E+03 -0.173586643082E+03 -0.168000928029E+03 -0.162216718583E+03 -0.156287910982E+03
 -0.150281293094E+03 -0.144276331811E+03 -0.138355257328E+03 -0.132668292739E+03 -0.127280913533E+03
 -0.122297599357E+03 -0.117823589215E+03 -0.114117790645E+03 -0.111104550899E+03 -0.108792023969E+03
 -0.105357532771E+03 -0.102040185098E+03 -0.988265994319E+02 -0.957142197492E+02 -0.926998589313E+02
 -0.897804298553E+02 -0.869529430048E+02 -0.842145028347E+02 -0.815623050187E+02 -0.789936335297E+02
 -0.765058578675E+02 -0.740964304812E+02 -0.717628837878E+02 -0.695028281286E+02 -0.673139490406E+02
 -0.651940049454E+02 -0.631408248643E+02 -0.611523061803E+02 -0.592264125174E+02 -0.573611716108E+02
 -0.555546733192E+02 -0.538050676666E+02 -0.521105629338E+02 -0.504694238217E+02 -0.488799697048E+02
 -0.473405728530E+02 -0.458496568107E+02 -0.444056947655E+02 -0.430072079854E+02 -0.416527643063E+02
 -0.403409766650E+02 -0.390705016823E+02 -0.378400382819E+02 -0.366483263651E+02 -0.354941455160E+02
 -0.343763137542E+02 -0.332936863235E+02 -0.322451545199E+02 -0.312296445561E+02 -0.302461164620E+02
 -0.292935630196E+02 -0.283710087315E+02 -0.274775088222E+02 -0.266121482701E+02 -0.257740408712E+02
 -0.249623283306E+02 -0.241761793844E+02 -0.234147889479E+02 -0.226773772913E+02 -0.219631892413E+02
 -0.212714934074E+02 -0.206015814332E+02 -0.199527672709E+02 -0.193243864787E+02 -0.187157955403E+02
 -0.181263712059E+02 -0.175555098540E+02
 pspotential valence only
 -0.153246882559E+03 -0.153247712602E+03 -0.153248516502E+03 -0.153249295084E+03 -0.153250049144E+03
 -0.153250779456E+03 -0.153251486766E+03 -0.153252171798E+03 -0.153252835255E+03 -0.153253477815E+03
 -0.153254100136E+03 -0.153254702858E+03 -0.153255286594E+03 -0.153255851945E+03 -0.153256399488E+03
 -0.153256929785E+03 -0.153257443378E+03 -0.153257940793E+03 -0.153258422539E+03 -0.153258889110E+03
 -0.153259340983E+03 -0.153259778622E+03 -0.153260202473E+03 -0.153260612971E+03 -0.153261010537E+03
 -0.153261395577E+03 -0.153261768485E+03 -0.153262129643E+03 -0.153262479421E+03 -0.153262818176E+03
 -0.153263146256E+03 -0.153263463996E+03 -0.153263771721E+03 -0.153264069747E+03 -0.153264358377E+03
 -0.153264637908E+03 -0.153264908625E+03 -0.153265170805E+03 -0.153265424716E+03 -0.153265670619E+03
 -0.153265908763E+03 -0.153266139394E+03 -0.153266362745E+03 -0.153266579047E+03 -0.153266788519E+03
 -0.153266991375E+03 -0.153267187824E+03 -0.153267378065E+03 -0.153267562291E+03 -0.153267740693E+03
 -0.153267913450E+03 -0.153268080739E+03 -0.153268242732E+03 -0.153268399591E+03 -0.153268551478E+03
 -0.153268698547E+03 -0.153268840946E+03 -0.153268978821E+03 -0.153269112312E+03 -0.153269241553E+03
 -0.153269366676E+03 -0.153269487807E+03 -0.153269605069E+03 -0.153269718579E+03 -0.153269828453E+03
 -0.153269934799E+03 -0.153270037726E+03 -0.153270137336E+03 -0.153270233728E+03 -0.153270326999E+03
 -0.153270417242E+03 -0.153270504545E+03 -0.153270588995E+03 -0.153270670674E+03 -0.153270749663E+03
 -0.153270826039E+03 -0.153270899876E+03 -0.153270971244E+03 -0.153271040212E+03 -0.153271106846E+03
 -0.153271171208E+03 -0.153271233359E+03 -0.153271293355E+03 -0.153271351252E+03 -0.153271407102E+03
 -0.153271460955E+03 -0.153271512857E+03 -0.153271562854E+03 -0.153271610987E+03 -0.153271657297E+03
 -0.153271701819E+03 -0.153271744590E+03 -0.153271785640E+03 -0.153271824999E+03 -0.153271862695E+03
 -0.153271898751E+03 -0.153271933190E+03 -0.153271966030E+03 -0.153271997288E+03 -0.153272026977E+03
 -0.153272055109E+03 -0.153272081690E+03 -0.153272106727E+03 -0.153272130220E+03 -0.153272152170E+03
 -0.153272172570E+03 -0.153272191413E+03 -0.153272208689E+03 -0.153272224381E+03 -0.153272238471E+03
 -0.153272250936E+03 -0.153272261750E+03 -0.153272270880E+03 -0.153272278292E+03 -0.153272283945E+03
 -0.153272287793E+03 -0.153272289786E+03 -0.153272289868E+03 -0.153272287977E+03 -0.153272284044E+03
 -0.153272277995E+03 -0.153272269748E+03 -0.153272259216E+03 -0.153272246301E+03 -0.153272230900E+03
 -0.153272212899E+03 -0.153272192176E+03 -0.153272168600E+03 -0.153272142030E+03 -0.153272112311E+03
 -0.153272079281E+03 -0.153272042762E+03 -0.153272002565E+03 -0.153271958488E+03 -0.153271910311E+03
 -0.153271857802E+03 -0.153271800710E+03 -0.153271738767E+03 -0.153271671687E+03 -0.153271599163E+03
 -0.153271520867E+03 -0.153271436449E+03 -0.153271345534E+03 -0.153271247720E+03 -0.153271142581E+03
 -0.153271029659E+03 -0.153270908466E+03 -0.153270778482E+03 -0.153270639148E+03 -0.153270489873E+03
 -0.153270330021E+03 -0.153270158916E+03 -0.153269975836E+03 -0.153269780011E+03 -0.153269570618E+03
 -0.153269346781E+03 -0.153269107564E+03 -0.153268851969E+03 -0.153268578932E+03 -0.153268287317E+03
 -0.153267975914E+03 -0.153267643431E+03 -0.153267288490E+03 -0.153266909623E+03 -0.153266505264E+03
 -0.153266073742E+03 -0.153265613275E+03 -0.153265121965E+03 -0.153264597787E+03 -0.153264038581E+03
 -0.153263442044E+03 -0.153262805722E+03 -0.153262126997E+03 -0.153261403079E+03 -0.153260630991E+03
 -0.153259807562E+03 -0.153258929409E+03 -0.153257992926E+03 -0.153256994268E+03 -0.153255929338E+03
 -0.153254793764E+03 -0.153253582889E+03 -0.153252291746E+03 -0.153250915041E+03 -0.153249447128E+03
 -0.153247881989E+03 -0.153246213211E+03 -0.153244433954E+03 -0.153242536927E+03 -0.153240514358E+03
 -0.153238357962E+03 -0.153236058906E+03 -0.153233607776E+03 -0.153230994534E+03 -0.153228208481E+03
 -0.153225238212E+03 -0.153222071569E+03 -0.153218695592E+03 -0.153215096466E+03 -0.153211259465E+03
 -0.153207168893E+03 -0.153202808018E+03 -0.153198159006E+03 -0.153193202847E+03 -0.153187919279E+03
 -0.153182286705E+03 -0.153176282106E+03 -0.153169880947E+03 -0.153163057078E+03 -0.153155782630E+03
 -0.153148027898E+03 -0.153139761226E+03 -0.153130948875E+03 -0.153121554890E+03 -0.153111540954E+03
 -0.153100866234E+03 -0.153089487216E+03 -0.153077357533E+03 -0.153064427776E+03 -0.153050645299E+03
 -0.153035954007E+03 -0.153020294135E+03 -0.153003602006E+03 -0.152985809782E+03 -0.152966845191E+03
 -0.152946631247E+03 -0.152925085941E+03 -0.152902121920E+03 -0.152877646146E+03 -0.152851559531E+03
 -0.152823756547E+03 -0.152794124821E+03 -0.152762544697E+03 -0.152728888776E+03 -0.152693021423E+03
 -0.152654798253E+03 -0.152614065576E+03 -0.152570659820E+03 -0.152524406910E+03 -0.152475121619E+03
 -0.152422606879E+03 -0.152366653048E+03 -0.152307037146E+03 -0.152243522041E+03 -0.152175855589E+03
 -0.152103769740E+03 -0.152026979580E+03 -0.151945182338E+03 -0.151858056334E+03 -0.151765259879E+03
 -0.151666430124E+03 -0.151561181851E+03 -0.151449106212E+03 -0.151329769420E+03 -0.151202711378E+03
 -0.151067444264E+03 -0.150923451058E+03 -0.150770184030E+03 -0.150607063181E+03 -0.150433474647E+03
 -0.150248769070E+03 -0.150052259951E+03 -0.149843221987E+03 -0.149620889416E+03 -0.149384454379E+03
 -0.149133065319E+03 -0.148865825454E+03 -0.148581791339E+03 -0.148279971564E+03 -0.147959325633E+03
 -0.147618763068E+03 -0.147257142813E+03 -0.146873273004E+03 -0.146465911200E+03 -0.146033765172E+03
 -0.145575494378E+03 -0.145089712260E+03 -0.144574989527E+03 -0.144029858597E+03 -0.143452819418E+03
 -0.142842346871E+03 -0.142196900025E+03 -0.141514933465E+03 -0.140794910988E+03 -0.140035321885E+03
 -0.139234700062E+03 -0.138391646148E+03 -0.137504852711E+03 -0.136573132545E+03 -0.135595449857E+03
 -0.134570953973E+03 -0.133499014903E+03 -0.132379259826E+03 -0.131211609141E+03 -0.129996310334E+03
 -0.128733967430E+03 -0.127425563262E+03 -0.126072471265E+03 -0.124676452880E+03 -0.123239636120E+03
 -0.121764470305E+03 -0.120253651649E+03 -0.118710014439E+03 -0.117136383347E+03 -0.115535384481E+03
 -0.113909216728E+03 -0.112259391203E+03 -0.110586455132E+03 -0.108889725830E+03 -0.107167067771E+03
 -0.105414748088E+03 -0.103627405391E+03 -0.101789542831E+03 -0.999437140151E+02 -0.980425107507E+02
 -0.960788508770E+02 -0.940558312049E+02 -0.921487025823E+02 -0.902257324162E+02 -0.882744866606E+02
 -0.863188134730E+02 -0.843780048830E+02 -0.824450744932E+02 -0.805234851994E+02 -0.786156712732E+02
 -0.767237567928E+02 -0.748495516535E+02 -0.729945622392E+02 -0.711600178293E+02 -0.693469132042E+02
 -0.675560653957E+02 -0.657881807429E+02 -0.640439269470E+02 -0.623240028446E+02 -0.606291995903E+02
 -0.589604468790E+02 -0.573188399977E+02 -0.557056454730E+02 -0.541222852492E+02 -0.525703011285E+02
 -0.510513025120E+02 -0.495669012821E+02 -0.481186381574E+02 -0.467079052121E+02 -0.453358696671E+02
 -0.440034044777E+02 -0.427110315137E+02 -0.414588828986E+02 -0.402466850425E+02 -0.390737679271E+02
 -0.379390994445E+02 -0.368413415363E+02 -0.357789222033E+02 -0.347501157601E+02 -0.337531233439E+02
 -0.327861466199E+02 -0.318474495005E+02 -0.309354049914E+02 -0.300485264856E+02 -0.291854845899E+02
 -0.283451117204E+02 -0.275263972501E+02 -0.267284760438E+02 -0.259506129403E+02 -0.251921852815E+02
 -0.244526650785E+02 -0.237316019165E+02 -0.230286072881E+02 -0.223433407176E+02 -0.216754978054E+02
 -0.210248001598E+02 -0.203909870876E+02 -0.197738088642E+02 -0.191730213824E+02 -0.185883819864E+02
 -0.180196463043E+02 -0.174665659194E+02
 core charge-density (pseudized)
  0.519905608232E-10  0.554267416734E-10  0.590900279549E-10  0.629954296097E-10  0.671589486232E-10
  0.715976445901E-10  0.763297046145E-10  0.813745178299E-10  0.867527548438E-10  0.924864524340E-10
  0.985991038411E-10  0.105115755031E-09  0.112063107316E-09  0.119469626763E-09  0.127365660829E-09
  0.135783562708E-09  0.144757823892E-09  0.154325215499E-09  0.164524938938E-09  0.175398786533E-09
  0.186991312762E-09  0.199350016813E-09  0.212525537213E-09  0.226571859305E-09  0.241546536456E-09
  0.257510925868E-09  0.274530439991E-09  0.292674814535E-09  0.312018394212E-09  0.332640437351E-09
  0.354625440654E-09  0.378063485407E-09  0.403050606586E-09  0.429689186342E-09  0.458088373509E-09
  0.488364530821E-09  0.520641711703E-09  0.555052168564E-09  0.591736894683E-09  0.630846201922E-09
  0.672540336602E-09  0.716990136104E-09  0.764377728851E-09  0.814897280558E-09  0.868755789810E-09
  0.926173936208E-09  0.987386984583E-09  0.105264574897E-08  0.112221762028E-08  0.119638766190E-08
  0.127545977775E-08  0.135975795741E-08  0.144962760371E-08  0.154543694795E-08  0.164757855864E-08
  0.175647095007E-08  0.187256029709E-08  0.199632226323E-08  0.212826394971E-08  0.226892597320E-08
  0.241888468094E-08  0.257875451222E-08  0.274919051601E-08  0.293089103487E-08  0.312460056636E-08
  0.333111281351E-08  0.355127393686E-08  0.378598602153E-08  0.403621077335E-08  0.430297345930E-08
  0.458736710842E-08  0.489055699023E-08  0.521378538934E-08  0.555837669543E-08  0.592574282971E-08
  0.631738903005E-08  0.673492001840E-08  0.718004657580E-08  0.765459255203E-08  0.816050233844E-08
  0.869984883469E-08  0.927484194199E-08  0.988783761774E-08  0.105413475285E-07  0.112380493408E-07
  0.119807976926E-07  0.127726358889E-07  0.136168083713E-07  0.145167740112E-07  0.154762202811E-07
  0.164990783632E-07  0.175895392565E-07  0.187520709472E-07  0.199914367156E-07  0.213127146514E-07
  0.227213184595E-07  0.242230196403E-07  0.258239711362E-07  0.275307325405E-07  0.293502969725E-07
  0.312901197281E-07  0.333581488244E-07  0.355628575625E-07  0.379132792416E-07  0.404190441683E-07
  0.430904191102E-07  0.459383493573E-07  0.489745035630E-07  0.522113215475E-07  0.556620652604E-07
  0.593408731107E-07  0.632628178864E-07  0.674439685016E-07  0.719014558231E-07  0.766535428464E-07
  0.817196995086E-07  0.871206824432E-07  0.928786200058E-07  0.990171029154E-07  0.105561280885E-06
  0.112537965635E-06  0.119975740715E-06  0.127905078574E-06  0.136358465368E-06  0.145370534015E-06
  0.154978206031E-06  0.165220842739E-06  0.176140406465E-06  0.187781632376E-06  0.200192211673E-06
  0.213422986872E-06  0.227528159990E-06  0.242565514469E-06  0.258596651761E-06  0.275687243520E-06
  0.293907300457E-06  0.313331458932E-06  0.334039286467E-06  0.356115607420E-06  0.379650850156E-06
  0.404741417117E-06  0.431490079324E-06  0.460006396888E-06  0.490407167275E-06  0.522816903126E-06
  0.557368341591E-06  0.594202987248E-06  0.633471690816E-06  0.675335266009E-06  0.719965147048E-06
  0.767544089494E-06  0.818266917256E-06  0.872341318792E-06  0.929988695744E-06  0.991445067441E-06
  0.105696203493E-05  0.112680780844E-05  0.120126830242E-05  0.128064830260E-05  0.136527270978E-05
  0.145548786526E-05  0.155166296347E-05  0.165419155726E-05  0.176349316199E-05  0.188001496483E-05
  0.200423364622E-05  0.213665732059E-05  0.227782760421E-05  0.242832181844E-05  0.258875533700E-05
  0.275978408680E-05  0.294210721195E-05  0.313646991183E-05  0.334366646402E-05  0.356454344439E-05
  0.380000315659E-05  0.405100728465E-05  0.431858078276E-05  0.460381601743E-05  0.490787717794E-05
  0.523200497226E-05  0.557752162630E-05  0.594583620572E-05  0.633845028039E-05  0.675696395312E-05
  0.720308227519E-05  0.767862207269E-05  0.818551920909E-05  0.872583631077E-05  0.930177098387E-05
  0.991566455212E-05  0.105700113474E-04  0.112674685859E-04  0.120108668647E-04  0.128032213158E-04
  0.136477434558E-04  0.145478537710E-04  0.155071950816E-04  0.165296467279E-04  0.176193396244E-04
  0.187806722319E-04  0.200183274945E-04  0.213372907958E-04  0.227428689870E-04  0.242407105420E-04
  0.258368268962E-04  0.275376150288E-04  0.293498813456E-04  0.312808669250E-04  0.333382741860E-04
  0.355302950415E-04  0.378656405944E-04  0.403535724397E-04  0.430039356276E-04  0.458271933443E-04
  0.488344633617E-04  0.520375563041E-04  0.554490157711E-04  0.590821603507E-04  0.629511275468E-04
  0.670709196311E-04  0.714574514193E-04  0.761275999496E-04  0.810992560261E-04  0.863913775612E-04
  0.920240446264E-04  0.980185160843E-04  0.104397287640E-03  0.111184151099E-03  0.118404254575E-03
  0.126084163322E-03  0.134251920800E-03  0.142937109507E-03  0.152170911011E-03  0.161986164521E-03
  0.172417423212E-03  0.183501007380E-03  0.195275053366E-03  0.207779557005E-03  0.221056410151E-03
  0.235149428644E-03  0.250104369808E-03  0.265968937303E-03  0.282792770878E-03  0.300627418182E-03
  0.319526285470E-03  0.339544563583E-03  0.360739125162E-03  0.383168388536E-03  0.406892143195E-03
  0.431971331171E-03  0.458467778024E-03  0.486443866460E-03  0.515962144887E-03  0.547084862493E-03
  0.579873421640E-03  0.614387737599E-03  0.650685494867E-03  0.688821288548E-03  0.728845638577E-03
  0.770803863938E-03  0.814734803536E-03  0.860669370061E-03  0.908628923135E-03  0.958623448272E-03
  0.101064952889E-02  0.106468809986E-02  0.112070197289E-02  0.117863312704E-02  0.123839976112E-02
  0.129989311009E-02  0.136297403380E-02  0.142746939502E-02  0.149316825378E-02  0.155981791802E-02
  0.162711990578E-02  0.169472589312E-02  0.176223374340E-02  0.182918373980E-02  0.189505517201E-02
  0.195926346229E-02  0.202115805317E-02  0.208002132098E-02  0.213506882328E-02  0.218545123504E-02
  0.223025837469E-02  0.226852576550E-02  0.229924421654E-02  0.232137293523E-02  0.233385669595E-02
  0.233564757622E-02  0.232573172661E-02  0.230316154845E-02  0.226709350375E-02  0.221683155562E-02
  0.215187592013E-02  0.207197638178E-02  0.197718886698E-02  0.186793326719E-02  0.174504964410E-02
  0.160984893220E-02  0.146415309003E-02  0.131031837504E-02  0.115123408966E-02  0.990287870878E-03
  0.831287525097E-03  0.678328759795E-03  0.535598221098E-03  0.407102379908E-03  0.296315464992E-03
  0.205744332993E-03  0.136415441297E-03  0.872994757747E-04  0.547754095664E-04  0.338188198116E-04
  0.205362242348E-04  0.122588806356E-04  0.718986064052E-05  0.414088624546E-05  0.234058880470E-05
  0.129766796585E-05  0.705257746188E-06  0.375498683592E-06  0.195734189800E-06  0.998239738991E-07
  0.497754873703E-07  0.242494266994E-07  0.115338788408E-07  0.535191862631E-08  0.242083588431E-08
  0.106657986918E-08  0.457333094816E-09  0.190682259329E-09  0.772398275178E-10  0.303688154904E-10
  0.115786767161E-10  0.427670909637E-11  0.152876609799E-11  0.528322171385E-12  0.176324824774E-12
  0.567674173964E-13  0.176097553853E-13  0.525721959721E-14  0.150858460345E-14  0.415563715107E-15
  0.109744952184E-15  0.277469656242E-16  0.670680098186E-17  0.154756453186E-17  0.340376048323E-18
  0.712472447356E-19  0.141702017331E-19  0.267337816327E-20  0.477612433480E-21  0.806589344905E-22
  0.128527880519E-22  0.192881896028E-23  0.272075946858E-24  0.360016081062E-25  0.445951382854E-26
  0.516011199631E-27  0.556518007526E-28  0.558161154107E-29  0.519374207451E-30  0.447289631952E-31
  0.355629990309E-32  0.260367891573E-33  0.175064565194E-34  0.107804238351E-35  0.606270898466E-37
  0.310468696030E-38  0.144336180909E-39  0.607271593111E-41  0.230484607408E-42  0.786517690571E-44
  0.240488010869E-45  0.656539175165E-47
 pseudo wavefunction
  0.165601274909E-03  0.170986215211E-03  0.176546260335E-03  0.182287104253E-03  0.188214626088E-03
  0.194334896143E-03  0.200654182106E-03  0.207178955479E-03  0.213915898199E-03  0.220871909482E-03
  0.228054112893E-03  0.235469863633E-03  0.243126756079E-03  0.251032631556E-03  0.259195586370E-03
  0.267623980099E-03  0.276326444154E-03  0.285311890615E-03  0.294589521364E-03  0.304168837504E-03
  0.314059649088E-03  0.324272085170E-03  0.334816604173E-03  0.345704004605E-03  0.356945436110E-03
  0.368552410895E-03  0.380536815510E-03  0.392910923029E-03  0.405687405616E-03  0.418879347498E-03
  0.432500258372E-03  0.446564087235E-03  0.461085236668E-03  0.476078577590E-03  0.491559464484E-03
  0.507543751121E-03  0.524047806797E-03  0.541088533096E-03  0.558683381199E-03  0.576850369752E-03
  0.595608103326E-03  0.614975791461E-03  0.634973268344E-03  0.655621013119E-03  0.676940170857E-03
  0.698952574216E-03  0.721680765792E-03  0.745148021210E-03  0.769378372957E-03  0.794396634995E-03
  0.820228428171E-03  0.846900206453E-03  0.874439284026E-03  0.902873863259E-03  0.932233063586E-03
  0.962546951331E-03  0.993846570492E-03  0.102616397454E-02  0.105953225923E-02  0.109398559650E-02
  0.112955926949E-02  0.116628970863E-02  0.120421452897E-02  0.124337256871E-02  0.128380392893E-02
  0.132555001474E-02  0.136865357757E-02  0.141315875904E-02  0.145911113612E-02  0.150655776781E-02
  0.155554724334E-02  0.160612973192E-02  0.165835703410E-02  0.171228263484E-02  0.176796175828E-02
  0.182545142426E-02  0.188481050674E-02  0.194609979407E-02  0.200938205127E-02  0.207472208424E-02
  0.214218680617E-02  0.221184530607E-02  0.228376891946E-02  0.235803130147E-02  0.243470850221E-02
  0.251387904471E-02  0.259562400524E-02  0.268002709642E-02  0.276717475284E-02  0.285715621965E-02
  0.295006364387E-02  0.304599216880E-02  0.314504003138E-02  0.324730866281E-02  0.335290279239E-02
  0.346193055474E-02  0.357450360052E-02  0.369073721075E-02  0.381075041481E-02  0.393466611232E-02
  0.406261119894E-02  0.419471669631E-02  0.433111788613E-02  0.447195444871E-02  0.461737060589E-02
  0.476751526870E-02  0.492254218982E-02  0.508261012087E-02  0.524788297500E-02  0.541852999457E-02
  0.559472592442E-02  0.577665119069E-02  0.596449208545E-02  0.615844095735E-02  0.635869640844E-02
  0.656546349740E-02  0.677895394934E-02  0.699938637243E-02  0.722698648150E-02  0.746198732900E-02
  0.770462954338E-02  0.795516157515E-02  0.821383995106E-02  0.848092953640E-02  0.875670380582E-02
  0.904144512301E-02  0.933544502928E-02  0.963900454167E-02  0.995243446058E-02  0.102760556874E-01
  0.106101995524E-01  0.109552081534E-01  0.113114347049E-01  0.116792438992E-01  0.120590122787E-01
  0.124511286202E-01  0.128559943318E-01  0.132740238629E-01  0.137056451266E-01  0.141512999365E-01
  0.146114444572E-01  0.150865496692E-01  0.155771018494E-01  0.160836030661E-01  0.166065716906E-01
  0.171465429251E-01  0.177040693471E-01  0.182797214723E-01  0.188740883338E-01  0.194877780817E-01
  0.201214186006E-01  0.207756581472E-01  0.214511660085E-01  0.221486331801E-01  0.228687730671E-01
  0.236123222065E-01  0.243800410130E-01  0.251727145476E-01  0.259911533114E-01  0.268361940638E-01
  0.277087006668E-01  0.286095649549E-01  0.295397076335E-01  0.305000792046E-01  0.314916609208E-01
  0.325154657699E-01  0.335725394896E-01  0.346639616126E-01  0.357908465450E-01  0.369543446772E-01
  0.381556435279E-01  0.393959689238E-01  0.406765862140E-01  0.419988015215E-01  0.433639630311E-01
  0.447734623162E-01  0.462287357043E-01  0.477312656821E-01  0.492825823415E-01  0.508842648672E-01
  0.525379430664E-01  0.542452989412E-01  0.560080683059E-01  0.578280424472E-01  0.597070698306E-01
  0.616470578522E-01  0.636499746364E-01  0.657178508802E-01  0.678527817449E-01  0.700569287938E-01
  0.723325219784E-01  0.746818616709E-01  0.771073207433E-01  0.796113466941E-01  0.821964638201E-01
  0.848652754332E-01  0.876204661216E-01  0.904648040534E-01  0.934011433215E-01  0.964324263261E-01
  0.995616861952E-01  0.102792049237E+00  0.106126737425E+00  0.109569070903E+00  0.113122470521E+00
  0.116790460376E+00  0.120576670376E+00  0.124484838792E+00  0.128518814820E+00  0.132682561119E+00
  0.136980156329E+00  0.141415797559E+00  0.145993802816E+00  0.150718613386E+00  0.155594796127E+00
  0.160627045674E+00  0.165820186522E+00  0.171179174977E+00  0.176709100948E+00  0.182415189541E+00
  0.188302802442E+00  0.194377439049E+00  0.200644737303E+00  0.207110474207E+00  0.213780565951E+00
  0.220661067624E+00  0.227758172444E+00  0.235078210439E+00  0.242627646537E+00  0.250413077955E+00
  0.258441230846E+00  0.266718956085E+00  0.275253224117E+00  0.284051118746E+00  0.293119829766E+00
  0.302466644293E+00  0.312098936671E+00  0.322024156792E+00  0.332249816675E+00  0.342783475128E+00
  0.353632720286E+00  0.364805149837E+00  0.376308348689E+00  0.388149863858E+00  0.400337176285E+00
  0.412877669330E+00  0.425778593618E+00  0.439047027918E+00  0.452689835719E+00  0.466713617115E+00
  0.481124655629E+00  0.495928859546E+00  0.511131697337E+00  0.526738126700E+00  0.542752516768E+00
  0.559178562982E+00  0.576019194132E+00  0.593276471053E+00  0.610951476486E+00  0.629044195575E+00
  0.647553386526E+00  0.666476440959E+00  0.685809233541E+00  0.705545960508E+00  0.725678966812E+00
  0.746198561674E+00  0.767092822489E+00  0.788347387158E+00  0.809945235139E+00  0.831866457709E+00
  0.854088018257E+00  0.876583503708E+00  0.899322868625E+00  0.922272173958E+00  0.945393322963E+00
  0.968643797418E+00  0.991976397975E+00  0.101533899325E+01  0.103867428313E+01  0.106191958281E+01
  0.108500663500E+01  0.110786145897E+01  0.113040424626E+01  0.115254931411E+01  0.117420512884E+01
  0.119527441271E+01  0.121565434853E+01  0.123523689767E+01  0.125390924704E+01  0.127155440116E+01
  0.128805193467E+01  0.130327891930E+01  0.131711103697E+01  0.132942388676E+01  0.134009448824E+01
  0.134900297587E+01  0.135603446974E+01  0.136108109471E+01  0.136404410461E+01  0.136483604857E+01
  0.136338289335E+01  0.135962598892E+01  0.135352373372E+01  0.134505276258E+01  0.133420844454E+01
  0.132100444233E+01  0.130547105119E+01  0.128765200798E+01  0.126759944459E+01  0.124536666154E+01
  0.122099842404E+01  0.119451854621E+01  0.116591463818E+01  0.113513192330E+01  0.110229857880E+01
  0.106760690010E+01  0.103126913596E+01  0.993503299095E+00  0.954531322759E+00  0.914577214133E+00
  0.873865220765E+00  0.832618025861E+00  0.791054985306E+00  0.749390419008E+00  0.707831968468E+00
  0.666579032406E+00  0.625821292906E+00  0.585737345768E+00  0.546493450360E+00  0.508242416091E+00
  0.471122643995E+00  0.435257342396E+00  0.400753934854E+00  0.367703675592E+00  0.336181483422E+00
  0.306245998609E+00  0.277939859932E+00  0.251290191405E+00  0.226309280801E+00  0.202995425930E+00
  0.181333920127E+00  0.161298145904E+00  0.142850745176E+00  0.125944835868E+00  0.110525247568E+00
  0.965297529287E-01  0.838902762044E-01  0.725340650868E-01  0.623848164471E-01  0.533637501515E-01
  0.453906274884E-01  0.383847117693E-01  0.322656684233E-01  0.269544007442E-01  0.223738158529E-01
  0.184495139807E-01  0.151103933442E-01  0.122891629950E-01  0.992275720427E-02  0.795264707957E-02
  0.632504796918E-02  0.499102444840E-02  0.390649795968E-02  0.303216518261E-02  0.233333770436E-02
  0.177971539391E-02  0.134510698519E-02  0.100711174732E-02  0.746775825065E-03  0.548235966487E-03
  0.398362041931E-03  0.286408129355E-03  0.203680128568E-03  0.143225991394E-03  0.995528223194E-04
  0.683734004099E-04  0.463831621932E-04
 ae wavefunction
 -0.779383096830E-03 -0.804670313270E-03 -0.830777582198E-03 -0.857731471993E-03 -0.885559410156E-03
 -0.914289710917E-03 -0.943951603903E-03 -0.974575263506E-03 -0.100619183930E-02 -0.103883348745E-02
 -0.107253340301E-02 -0.110732585339E-02 -0.114324621276E-02 -0.118033099764E-02 -0.121861790359E-02
 -0.125814584301E-02 -0.129895498426E-02 -0.134108679191E-02 -0.138458406830E-02 -0.142949099646E-02
 -0.147585318430E-02 -0.152371771029E-02 -0.157313317051E-02 -0.162414972725E-02 -0.167681915906E-02
 -0.173119491243E-02 -0.178733215513E-02 -0.184528783112E-02 -0.190512071730E-02 -0.196689148194E-02
 -0.203066274502E-02 -0.209649914040E-02 -0.216446737996E-02 -0.223463631973E-02 -0.230707702809E-02
 -0.238186285607E-02 -0.245906950987E-02 -0.253877512557E-02 -0.262106034627E-02 -0.270600840140E-02
 -0.279370518875E-02 -0.288423935877E-02 -0.297770240172E-02 -0.307418873718E-02 -0.317379580664E-02
 -0.327662416861E-02 -0.338277759695E-02 -0.349236318182E-02 -0.360549143407E-02 -0.372227639252E-02
 -0.384283573458E-02 -0.396729089028E-02 -0.409576715955E-02 -0.422839383321E-02 -0.436530431744E-02
 -0.450663626198E-02 -0.465253169225E-02 -0.480313714520E-02 -0.495860380933E-02 -0.511908766876E-02
 -0.528474965151E-02 -0.545575578215E-02 -0.563227733885E-02 -0.581449101505E-02 -0.600257908564E-02
 -0.619672957814E-02 -0.639713644856E-02 -0.660399976236E-02 -0.681752588056E-02 -0.703792765101E-02
 -0.726542460506E-02 -0.750024315978E-02 -0.774261682538E-02 -0.799278641926E-02 -0.825100028454E-02
 -0.851751451588E-02 -0.879259319033E-02 -0.907650860516E-02 -0.936954152124E-02 -0.967198141353E-02
 -0.998412672745E-02 -0.103062851425E-01 -0.106387738418E-01 -0.109819197897E-01 -0.113360600146E-01
 -0.117015419006E-01 -0.120787234848E-01 -0.124679737626E-01 -0.128696730002E-01 -0.132842130537E-01
 -0.137119976969E-01 -0.141534429550E-01 -0.146089774467E-01 -0.150790427338E-01 -0.155640936780E-01
 -0.160645988047E-01 -0.165810406757E-01 -0.171139162676E-01 -0.176637373588E-01 -0.182310309232E-01
 -0.188163395317E-01 -0.194202217597E-01 -0.200432526026E-01 -0.206860238975E-01 -0.213491447517E-01
 -0.220332419769E-01 -0.227389605305E-01 -0.234669639613E-01 -0.242179348617E-01 -0.249925753241E-01
 -0.257916074021E-01 -0.266157735754E-01 -0.274658372185E-01 -0.283425830720E-01 -0.292468177161E-01
 -0.301793700449E-01 -0.311410917422E-01 -0.321328577566E-01 -0.331555667740E-01 -0.342101416900E-01
 -0.352975300764E-01 -0.364187046442E-01 -0.375746636995E-01 -0.387664315921E-01 -0.399950591543E-01
 -0.412616241284E-01 -0.425672315815E-01 -0.439130143044E-01 -0.453001331937E-01 -0.467297776135E-01
 -0.482031657353E-01 -0.497215448519E-01 -0.512861916636E-01 -0.528984125333E-01 -0.545595437062E-01
 -0.562709514913E-01 -0.580340324005E-01 -0.598502132415E-01 -0.617209511588E-01 -0.636477336197E-01
 -0.656320783391E-01 -0.676755331376E-01 -0.697796757281E-01 -0.719461134235E-01 -0.741764827598E-01
 -0.764724490276E-01 -0.788357057041E-01 -0.812679737782E-01 -0.837710009598E-01 -0.863465607666E-01
 -0.889964514752E-01 -0.917224949305E-01 -0.945265352010E-01 -0.974104370693E-01 -0.100376084346E+00
 -0.103425377998E+00 -0.106560234069E+00 -0.109782581393E+00 -0.113094359073E+00 -0.116497513719E+00
 -0.119993996425E+00 -0.123585759471E+00 -0.127274752728E+00 -0.131062919760E+00 -0.134952193590E+00
 -0.138944492115E+00 -0.143041713160E+00 -0.147245729132E+00 -0.151558381270E+00 -0.155981473453E+00
 -0.160516765554E+00 -0.165165966306E+00 -0.169930725670E+00 -0.174812626661E+00 -0.179813176615E+00
 -0.184933797877E+00 -0.190175817867E+00 -0.195540458509E+00 -0.201028824989E+00 -0.206641893818E+00
 -0.212380500161E+00 -0.218245324419E+00 -0.224236878021E+00 -0.230355488408E+00 -0.236601283177E+00
 -0.242974173355E+00 -0.249473835785E+00 -0.256099694593E+00 -0.262850901717E+00 -0.269726316470E+00
 -0.276724484129E+00 -0.283843613524E+00 -0.291081553615E+00 -0.298435769056E+00 -0.305903314724E+00
 -0.313480809235E+00 -0.321164407423E+00 -0.328949771820E+00 -0.336832043128E+00 -0.344805809729E+00
 -0.352865076246E+00 -0.361003231209E+00 -0.369213013870E+00 -0.377486480222E+00 -0.385814968310E+00
 -0.394189062896E+00 -0.402598559602E+00 -0.411032428616E+00 -0.419478778114E+00 -0.427924817522E+00
 -0.436356820792E+00 -0.444760089875E+00 -0.453118918580E+00 -0.461416557052E+00 -0.469635177111E+00
 -0.477755838715E+00 -0.485758457848E+00 -0.493621776132E+00 -0.501323332532E+00 -0.508839437498E+00
 -0.516145149957E+00 -0.523214257570E+00 -0.530019260710E+00 -0.536531360649E+00 -0.542720452445E+00
 -0.548555123086E+00 -0.554002655441E+00 -0.559029038607E+00 -0.563598985285E+00 -0.567675956795E+00
 -0.571222196417E+00 -0.574198771715E+00 -0.576565626551E+00 -0.578281643483E+00 -0.579304717274E+00
 -0.579591840212E+00 -0.579099199957E+00 -0.577782290626E+00 -0.575596037785E+00 -0.572494938013E+00
 -0.568433213657E+00 -0.563364983350E+00 -0.557244448807E+00 -0.550026098335E+00 -0.541664927408E+00
 -0.532116676553E+00 -0.521338086673E+00 -0.509287171770E+00 -0.495923508899E+00 -0.481208544969E+00
 -0.465105919826E+00 -0.447581804800E+00 -0.428605255678E+00 -0.408148578774E+00 -0.386187708515E+00
 -0.362702594667E+00 -0.337677597032E+00 -0.311101885188E+00 -0.282969840575E+00 -0.253281457993E+00
 -0.222042743363E+00 -0.189266104438E+00 -0.154970730930E+00 -0.119182960373E+00 -0.819366257340E-01
 -0.432733803740E-01 -0.324299526114E-02  0.380963777821E-01  0.806779847713E-01  0.124426300736E+00
  0.169256927446E+00  0.215076576009E+00  0.261783156656E+00  0.309265999113E+00  0.357406220225E+00
  0.406077233602E+00  0.455145353177E+00  0.504470382160E+00  0.553906025226E+00  0.603299960651E+00
  0.652493504912E+00  0.701320994811E+00  0.749609227247E+00  0.797177405054E+00  0.843837926086E+00
  0.889398036376E+00  0.933662033103E+00  0.976433577202E+00  0.101751780441E+01  0.105672315209E+01
  0.109386297676E+01  0.112875707981E+01  0.116123322695E+01  0.119112869719E+01  0.121829185600E+01
  0.124258372263E+01  0.126387949111E+01  0.128206996291E+01  0.129706285368E+01  0.130878394245E+01
  0.131717803933E+01  0.132220975329E+01  0.132386404753E+01  0.132214657491E+01  0.131708378883E+01
  0.130872283090E+01  0.129713119683E+01  0.128239618933E+01  0.126462416547E+01  0.124393959313E+01
  0.122048392924E+01  0.119441433899E+01  0.116590227297E+01  0.113513192330E+01  0.110229857880E+01
  0.106760690010E+01  0.103126913596E+01  0.993503299095E+00  0.954531322759E+00  0.914577214133E+00
  0.873865220765E+00  0.832618025861E+00  0.791054985306E+00  0.749390419008E+00  0.707831968468E+00
  0.666579032406E+00  0.625821292906E+00  0.585737345768E+00  0.546493450360E+00  0.508242416091E+00
  0.471122643995E+00  0.435257342396E+00  0.400753934854E+00  0.367703675592E+00  0.336181483422E+00
  0.306245998609E+00  0.277939859932E+00  0.251290191405E+00  0.226309280801E+00  0.202995425930E+00
  0.181333920127E+00  0.161298145904E+00  0.142850745176E+00  0.125944835868E+00  0.110525247568E+00
  0.965297529287E-01  0.838902762044E-01  0.725340650868E-01  0.623848164471E-01  0.533637501515E-01
  0.453906274884E-01  0.383847117693E-01  0.322656684233E-01  0.269544007442E-01  0.223738158529E-01
  0.184495139807E-01  0.151103933442E-01  0.122891629950E-01  0.992275720427E-02  0.795264707957E-02
  0.632504796918E-02  0.499102444840E-02  0.390649795968E-02  0.303216518261E-02  0.233333770436E-02
  0.177971539391E-02  0.134510698519E-02  0.100711174732E-02  0.746775825065E-03  0.548235966487E-03
  0.398362041931E-03  0.286408129355E-03  0.203680128568E-03  0.143225991394E-03  0.995528223194E-04
  0.683734004099E-04  0.463831621932E-04
 pseudo wavefunction
 -0.222385446234E-03 -0.229616866114E-03 -0.237083433723E-03 -0.244792795479E-03 -0.252752846441E-03
 -0.260971738396E-03 -0.269457888206E-03 -0.278219986430E-03 -0.287267006221E-03 -0.296608212516E-03
 -0.306253171527E-03 -0.316211760531E-03 -0.326494177994E-03 -0.337110954007E-03 -0.348072961076E-03
 -0.359391425250E-03 -0.371077937625E-03 -0.383144466208E-03 -0.395603368175E-03 -0.408467402529E-03
 -0.421749743161E-03 -0.435463992344E-03 -0.449624194666E-03 -0.464244851405E-03 -0.479340935387E-03
 -0.494927906317E-03 -0.511021726608E-03 -0.527638877732E-03 -0.544796377098E-03 -0.562511795476E-03
 -0.580803274993E-03 -0.599689547715E-03 -0.619189954825E-03 -0.639324466431E-03 -0.660113702021E-03
 -0.681578951575E-03 -0.703742197369E-03 -0.726626136486E-03 -0.750254204062E-03 -0.774650597283E-03
 -0.799840300164E-03 -0.825849109138E-03 -0.852703659471E-03 -0.880431452539E-03 -0.909060883994E-03
 -0.938621272838E-03 -0.969142891453E-03 -0.100065699660E-02 -0.103319586143E-02 -0.106679280853E-02
 -0.110148224405E-02 -0.113729969294E-02 -0.117428183533E-02 -0.121246654408E-02 -0.125189292359E-02
 -0.129260134982E-02 -0.133463351166E-02 -0.137803245360E-02 -0.142284261981E-02 -0.146910989970E-02
 -0.151688167484E-02 -0.156620686754E-02 -0.161713599092E-02 -0.166972120065E-02 -0.172401634837E-02
 -0.178007703679E-02 -0.183796067669E-02 -0.189772654569E-02 -0.195943584892E-02 -0.202315178175E-02
 -0.208893959446E-02 -0.215686665908E-02 -0.222700253838E-02 -0.229941905710E-02 -0.237419037551E-02
 -0.245139306531E-02 -0.253110618812E-02 -0.261341137636E-02 -0.269839291686E-02 -0.278613783723E-02
 -0.287673599488E-02 -0.297028016910E-02 -0.306686615605E-02 -0.316659286684E-02 -0.326956242881E-02
 -0.337588029012E-02 -0.348565532769E-02 -0.359899995874E-02 -0.371603025584E-02 -0.383686606577E-02
 -0.396163113225E-02 -0.409045322265E-02 -0.422346425875E-02 -0.436080045188E-02 -0.450260244231E-02
 -0.464901544330E-02 -0.480018938974E-02 -0.495627909167E-02 -0.511744439274E-02 -0.528385033389E-02
 -0.545566732225E-02 -0.563307130568E-02 -0.581624395277E-02 -0.600537283889E-02 -0.620065163818E-02
 -0.640228032175E-02 -0.661046536243E-02 -0.682541994604E-02 -0.704736418961E-02 -0.727652536669E-02
 -0.751313813986E-02 -0.775744480096E-02 -0.800969551898E-02 -0.827014859607E-02 -0.853907073184E-02
 -0.881673729621E-02 -0.910343261115E-02 -0.939945024157E-02 -0.970509329558E-02 -0.100206747346E-01
 -0.103465176933E-01 -0.106829558103E-01 -0.110303335692E-01 -0.113890066508E-01 -0.117593422970E-01
 -0.121417196858E-01 -0.125365303194E-01 -0.129441784238E-01 -0.133650813625E-01 -0.137996700624E-01
 -0.142483894542E-01 -0.147116989274E-01 -0.151900727986E-01 -0.156840007965E-01 -0.161939885616E-01
 -0.167205581624E-01 -0.172642486282E-01 -0.178256164989E-01 -0.184052363927E-01 -0.190037015923E-01
 -0.196216246493E-01 -0.202596380090E-01 -0.209183946541E-01 -0.215985687704E-01 -0.223008564326E-01
 -0.230259763131E-01 -0.237746704130E-01 -0.245477048163E-01 -0.253458704688E-01 -0.261699839814E-01
 -0.270208884595E-01 -0.278994543580E-01 -0.288065803642E-01 -0.297431943088E-01 -0.307102541051E-01
 -0.317087487187E-01 -0.327396991673E-01 -0.338041595521E-01 -0.349032181223E-01 -0.360379983718E-01
 -0.372096601714E-01 -0.384194009359E-01 -0.396684568275E-01 -0.409581039967E-01 -0.422896598616E-01
 -0.436644844267E-01 -0.450839816422E-01 -0.465496008052E-01 -0.480628380030E-01 -0.496252376012E-01
 -0.512383937757E-01 -0.529039520917E-01 -0.546236111292E-01 -0.563991241571E-01 -0.582323008571E-01
 -0.601250090971E-01 -0.620791767575E-01 -0.640967936089E-01 -0.661799132447E-01 -0.683306550676E-01
 -0.705512063320E-01 -0.728438242434E-01 -0.752108381146E-01 -0.776546515807E-01 -0.801777448727E-01
 -0.827826771511E-01 -0.854720888989E-01 -0.882487043754E-01 -0.911153341308E-01 -0.940748775813E-01
 -0.971303256444E-01 -0.100284763435E+00 -0.103541373020E+00 -0.106903436234E+00 -0.110374337549E+00
 -0.113957567004E+00 -0.117656723183E+00 -0.121475516253E+00 -0.125417771043E+00 -0.129487430174E+00
 -0.133688557224E+00 -0.138025339939E+00 -0.142502093467E+00 -0.147123263622E+00 -0.151893430164E+00
 -0.156817310089E+00 -0.161899760922E+00 -0.167145783995E+00 -0.172560527708E+00 -0.178149290752E+00
 -0.183917525279E+00 -0.189870840013E+00 -0.196015003263E+00 -0.202355945834E+00 -0.208899763809E+00
 -0.215652721164E+00 -0.222621252204E+00 -0.229811963768E+00 -0.237231637187E+00 -0.244887229938E+00
 -0.252785876950E+00 -0.260934891530E+00 -0.269341765826E+00 -0.278014170792E+00 -0.286959955573E+00
 -0.296187146239E+00 -0.305703943787E+00 -0.315518721322E+00 -0.325640020321E+00 -0.336076545858E+00
 -0.346837160696E+00 -0.357930878082E+00 -0.369366853134E+00 -0.381154372644E+00 -0.393302843124E+00
 -0.405821776925E+00 -0.418720776205E+00 -0.432009514532E+00 -0.445697715880E+00 -0.459795130755E+00
 -0.474311509152E+00 -0.489256570053E+00 -0.504639967105E+00 -0.520471250141E+00 -0.536759822120E+00
 -0.553514891091E+00 -0.570745416712E+00 -0.588460050831E+00 -0.606667071625E+00 -0.625374310723E+00
 -0.644589072731E+00 -0.664318046525E+00 -0.684567207662E+00 -0.705341711196E+00 -0.726645774188E+00
 -0.748482547143E+00 -0.770853973597E+00 -0.793760637052E+00 -0.817201594455E+00 -0.841174195390E+00
 -0.865673886195E+00 -0.890693998209E+00 -0.916225519411E+00 -0.942256848777E+00 -0.968773532748E+00
 -0.995757983349E+00 -0.102318917762E+01 -0.105104233823E+01 -0.107928859541E+01 -0.110789463056E+01
 -0.113682230233E+01 -0.116602825637E+01 -0.119546352043E+01 -0.122507308706E+01 -0.125479548701E+01
 -0.128456235701E+01 -0.131429800662E+01 -0.134391898995E+01 -0.137333368893E+01 -0.140244191650E+01
 -0.143113454891E+01 -0.145929319829E+01 -0.148678993802E+01 -0.151348709478E+01 -0.153923712331E+01
 -0.156388258083E+01 -0.158725621994E+01 -0.160918121978E+01 -0.162947157581E+01 -0.164793266924E+01
 -0.166436203590E+01 -0.167855035363E+01 -0.169028266361E+01 -0.169933983724E+01 -0.170550029365E+01
 -0.170854196412E+01 -0.170824448870E+01 -0.170439161572E+01 -0.169677375738E+01 -0.168519063354E+01
 -0.166945391136E+01 -0.164938972057E+01 -0.162484089453E+01 -0.159566875580E+01 -0.156175423470E+01
 -0.152299808336E+01 -0.147931992846E+01 -0.143065590122E+01 -0.137695459756E+01 -0.131817116430E+01
 -0.125425938934E+01 -0.118516180381E+01 -0.111079799695E+01 -0.103107310382E+01 -0.946044623512E+00
 -0.855863729070E+00 -0.760686739008E+00 -0.660670896630E+00 -0.555970629475E+00 -0.446733524925E+00
 -0.333095998077E+00 -0.215178625328E+00 -0.930811030227E-01  0.331232079460E-01  0.000000000000E+00
  0.000000000000E+00  0.000000000000E+00  0.000000000000E+00  0.000000000000E+00  0.000000000000E+00
  0.000000000000E+00  0.000000000000E+00  0.000000000000E+00  0.000000000000E+00  0.000000000000E+00
  0.000000000000E+00  0.000000000000E+00  0.000000000000E+00  0.000000000000E+00  0.000000000000E+00
  0.000000000000E+00  0.000000000000E+00  0.000000000000E+00  0.000000000000E+00  0.000000000000E+00
  0.000000000000E+00  0.000000000000E+00  0.000000000000E+00  0.000000000000E+00  0.000000000000E+00
  0.000000000000E+00  0.000000000000E+00  0.000000000000E+00  0.000000000000E+00  0.000000000000E+00
  0.000000000000E+00  0.000000000000E+00  0.000000000000E+00  0.000000000000E+00  0.000000000000E+00
  0.000000000000E+00  0.000000000000E+00  0.000000000000E+00  0.000000000000E+00  0.000000000000E+00
  0.000000000000E+00  0.000000000000E+00  0.000000000000E+00  0.000000000000E+00  0.000000000000E+00
  0.000000000000E+00  0.000000000000E+00  0.000000000000E+00  0.000000000000E+00  0.000000000000E+00
  0.000000000000E+00  0.000000000000E+00
 ae wavefunction
  0.102279809809E-02  0.105598295520E-02  0.109024398153E-02  0.112561604322E-02  0.116213513385E-02
  0.119983841069E-02  0.123876423228E-02  0.127895219700E-02  0.132044318298E-02  0.136327938930E-02
  0.140750437843E-02  0.145316312007E-02  0.150030203637E-02  0.154896904858E-02  0.159921362524E-02
  0.165108683177E-02  0.170464138181E-02  0.175993169002E-02  0.181701392666E-02  0.187594607387E-02
  0.193678798372E-02  0.199960143809E-02  0.206445021046E-02  0.213140012966E-02  0.220051914556E-02
  0.227187739694E-02  0.234554728140E-02  0.242160352748E-02  0.250012326910E-02  0.258118612230E-02
  0.266487426433E-02  0.275127251532E-02  0.284046842242E-02  0.293255234656E-02  0.302761755200E-02
  0.312576029854E-02  0.322707993673E-02  0.333167900586E-02  0.343966333524E-02  0.355114214828E-02
  0.366622817008E-02  0.378503773816E-02  0.390769091669E-02  0.403431161410E-02  0.416502770449E-02
  0.429997115249E-02  0.443927814225E-02  0.458308921001E-02  0.473154938098E-02  0.488480831019E-02
  0.504302042768E-02  0.520634508806E-02  0.537494672452E-02  0.554899500752E-02  0.572866500817E-02
  0.591413736647E-02  0.610559846469E-02  0.630324060565E-02  0.650726219645E-02  0.671786793755E-02
  0.693526901738E-02  0.715968331261E-02  0.739133559430E-02  0.763045774002E-02  0.787728895198E-02
  0.813207598160E-02  0.839507336033E-02  0.866654363718E-02  0.894675762282E-02  0.923599464071E-02
  0.953454278511E-02  0.984269918650E-02  0.101607702838E-01  0.104890721050E-01  0.108279305546E-01
  0.111776817090E-01  0.115386721204E-01  0.119112591282E-01  0.122958111786E-01  0.126927081535E-01
  0.131023417068E-01  0.135251156102E-01  0.139614461072E-01  0.144117622770E-01  0.148765064061E-01
  0.153561343706E-01  0.158511160267E-01  0.163619356112E-01  0.168890921513E-01  0.174330998841E-01
  0.179944886854E-01  0.185738045092E-01  0.191716098356E-01  0.197884841298E-01  0.204250243101E-01
  0.210818452261E-01  0.217595801464E-01  0.224588812564E-01  0.231804201655E-01  0.239248884241E-01
  0.246929980494E-01  0.254854820617E-01  0.263030950283E-01  0.271466136176E-01  0.280168371606E-01
  0.289145882217E-01  0.298407131766E-01  0.307960827979E-01  0.317815928479E-01  0.327981646776E-01
  0.338467458320E-01  0.349283106597E-01  0.360438609282E-01  0.371944264416E-01  0.383810656625E-01
  0.396048663337E-01  0.408669461028E-01  0.421684531445E-01  0.435105667818E-01  0.448944981041E-01
  0.463214905805E-01  0.477928206656E-01  0.493097983984E-01  0.508737679901E-01  0.524861083994E-01
  0.541482338933E-01  0.558615945904E-01  0.576276769837E-01  0.594480044421E-01  0.613241376830E-01
  0.632576752182E-01  0.652502537650E-01  0.673035486205E-01  0.694192739947E-01  0.715991832983E-01
  0.738450693790E-01  0.761587647029E-01  0.785421414739E-01  0.809971116867E-01  0.835256271057E-01
  0.861296791639E-01  0.888112987751E-01  0.915725560499E-01  0.944155599104E-01  0.973424575918E-01
  0.100355434023E+00  0.103456711081E+00  0.106648546694E+00  0.109933233808E+00  0.113313099176E+00
  0.116790501978E+00  0.120367832256E+00  0.124047509137E+00  0.127831978849E+00  0.131723712499E+00
  0.135725203604E+00  0.139838965360E+00  0.144067527627E+00  0.148413433607E+00  0.152879236211E+00
  0.157467494072E+00  0.162180767208E+00  0.167021612289E+00  0.171992577494E+00  0.177096196945E+00
  0.182334984667E+00  0.187711428068E+00  0.193227980906E+00  0.198887055710E+00  0.204691015624E+00
  0.210642165658E+00  0.216742743283E+00  0.222994908383E+00  0.229400732476E+00  0.235962187219E+00
  0.242681132128E+00  0.249559301490E+00  0.256598290434E+00  0.263799540106E+00  0.271164321938E+00
  0.278693720943E+00  0.286388618021E+00  0.294249671227E+00  0.302277295961E+00  0.310471644060E+00
  0.318832581732E+00  0.327359666313E+00  0.336052121816E+00  0.344908813228E+00  0.353928219539E+00
  0.363108405469E+00  0.372446991877E+00  0.381941124822E+00  0.391587443286E+00  0.401382045521E+00
  0.411320454040E+00  0.421397579240E+00  0.431607681692E+00  0.441944333084E+00  0.452400375883E+00
  0.462967881734E+00  0.473638108645E+00  0.484401457046E+00  0.495247424776E+00  0.506164561101E+00
  0.517140419877E+00  0.528161511977E+00  0.539213257133E+00  0.550279935369E+00  0.561344638190E+00
  0.572389219769E+00  0.583394248351E+00  0.594338958144E+00  0.605201201989E+00  0.615957405133E+00
  0.626582520456E+00  0.637049985538E+00  0.647331681984E+00  0.657397897460E+00  0.667217290939E+00
  0.676756861667E+00  0.685981922433E+00  0.694856077724E+00  0.703341207433E+00  0.711397456773E+00
  0.718983233132E+00  0.726055210628E+00  0.732568343138E+00  0.738475886653E+00  0.743729431805E+00
  0.748278947468E+00  0.752072836348E+00  0.755058003510E+00  0.757179938808E+00  0.758382814205E+00
  0.758609596944E+00  0.757802179597E+00  0.755901527939E+00  0.752847847632E+00  0.748580770638E+00
  0.743039562271E+00  0.736163349711E+00  0.727891372762E+00  0.718163257516E+00  0.706919313515E+00
  0.694100854817E+00  0.679650545295E+00  0.663512768224E+00  0.645634020102E+00  0.625963328327E+00
  0.604452692158E+00  0.581057546056E+00  0.555737244197E+00  0.528455564603E+00  0.499181230994E+00
  0.467888450073E+00  0.434557461595E+00  0.399175098222E+00  0.361735351798E+00  0.322239942381E+00
  0.280698886080E+00  0.237131057493E+00  0.191564742273E+00  0.144038175094E+00  0.946000578769E-01
  0.433100525371E-01 -0.976075846020E-02 -0.645294519957E-01 -0.120900895309E+00 -0.178767442271E+00
 -0.238008713798E+00 -0.298491486962E+00 -0.360069722585E+00 -0.422584762374E+00 -0.485865717301E+00
 -0.549730039385E+00 -0.613984211611E+00 -0.678424410654E+00 -0.742836927154E+00 -0.806998129501E+00
 -0.870673887741E+00 -0.933618631919E+00 -0.995574503552E+00 -0.105627119755E+01 -0.111542693760E+01
 -0.117275060413E+01 -0.122794459101E+01 -0.128070780614E+01 -0.133073840736E+01 -0.137773617010E+01
 -0.142140459039E+01 -0.146145288072E+01 -0.149759797215E+01 -0.152956656886E+01 -0.155709724668E+01
 -0.157994255458E+01 -0.159787106413E+01 -0.161066931010E+01 -0.161814357131E+01 -0.162012144802E+01
 -0.161645320252E+01 -0.160701283604E+01 -0.159169888236E+01 -0.157043490486E+01 -0.154316968632E+01
 -0.150987710849E+01 -0.147055571707E+01 -0.142522797707E+01 -0.137393922012E+01 -0.131675629362E+01
 -0.125376591776E+01 -0.118507276225E+01 -0.111079725090E+01 -0.103107310382E+01 -0.946044623512E+00
 -0.855863729070E+00 -0.760686739008E+00 -0.660670896630E+00 -0.555970629475E+00 -0.446733524925E+00
 -0.333095998077E+00 -0.215178625328E+00 -0.930811030227E-01  0.331232079460E-01  0.000000000000E+00
  0.000000000000E+00  0.000000000000E+00  0.000000000000E+00  0.000000000000E+00  0.000000000000E+00
  0.000000000000E+00  0.000000000000E+00  0.000000000000E+00  0.000000000000E+00  0.000000000000E+00
  0.000000000000E+00  0.000000000000E+00  0.000000000000E+00  0.000000000000E+00  0.000000000000E+00
  0.000000000000E+00  0.000000000000E+00  0.000000000000E+00  0.000000000000E+00  0.000000000000E+00
  0.000000000000E+00  0.000000000000E+00  0.000000000000E+00  0.000000000000E+00  0.000000000000E+00
  0.000000000000E+00  0.000000000000E+00  0.000000000000E+00  0.000000000000E+00  0.000000000000E+00
  0.000000000000E+00  0.000000000000E+00  0.000000000000E+00  0.000000000000E+00  0.000000000000E+00
  0.000000000000E+00  0.000000000000E+00  0.000000000000E+00  0.000000000000E+00  0.000000000000E+00
  0.000000000000E+00  0.000000000000E+00  0.000000000000E+00  0.000000000000E+00  0.000000000000E+00
  0.000000000000E+00  0.000000000000E+00  0.000000000000E+00  0.000000000000E+00  0.000000000000E+00
  0.000000000000E+00  0.000000000000E+00
 pseudo wavefunction
  0.876800944011E-08  0.934750821447E-08  0.996530745264E-08  0.106239385241E-07  0.113261001027E-07
  0.120746692239E-07  0.128727130735E-07  0.137235015550E-07  0.146305206876E-07  0.155974868896E-07
  0.166283622068E-07  0.177273705456E-07  0.188990149810E-07  0.201480962064E-07  0.214797322051E-07
  0.228993792199E-07  0.244128541097E-07  0.260263581836E-07  0.277465026102E-07  0.295803355059E-07
  0.315353708140E-07  0.336196190923E-07  0.358416203355E-07  0.382104789672E-07  0.407359011437E-07
  0.434282345249E-07  0.462985106719E-07  0.493584902482E-07  0.526207112076E-07  0.560985401672E-07
  0.598062271759E-07  0.637589641022E-07  0.679729468815E-07  0.724654418773E-07  0.772548566282E-07
  0.823608152708E-07  0.878042389479E-07  0.936074315303E-07  0.997941710050E-07  0.106389806902E-06
  0.113421364164E-06  0.120917653873E-06  0.128909391308E-06  0.137429321791E-06  0.146512354860E-06
  0.156195707309E-06  0.166519055677E-06  0.177524698819E-06  0.189257731222E-06  0.201766227775E-06
  0.215101440749E-06  0.229318009799E-06  0.244474185843E-06  0.260632069739E-06  0.277857866739E-06
  0.296222157754E-06  0.315800188551E-06  0.336672178071E-06  0.358923647107E-06  0.382645768724E-06
  0.407935741827E-06  0.434897189421E-06  0.463640583198E-06  0.494283696178E-06  0.526952085273E-06
  0.561779605740E-06  0.598908959638E-06  0.638492280532E-06  0.680691756840E-06  0.725680296386E-06
  0.773642234858E-06  0.824774091112E-06  0.879285372373E-06  0.937399432670E-06  0.999354387998E-06
  0.106540409197E-05  0.113581917593E-05  0.121088815785E-05  0.129091862451E-05  0.137623849171E-05
  0.146719734796E-05  0.156416788680E-05  0.166754743388E-05  0.177775957492E-05  0.189525589134E-05
  0.202051781045E-05  0.215405857812E-05  0.229642536164E-05  0.244820149169E-05  0.261000885240E-05
  0.278251042944E-05  0.296641302644E-05  0.316247016102E-05  0.337148515214E-05  0.359431441156E-05
  0.383187095279E-05  0.408512813195E-05  0.435512363590E-05  0.464296373389E-05  0.494982781024E-05
  0.527697319654E-05  0.562574032326E-05  0.599755821177E-05  0.639395032933E-05  0.681654083108E-05
  0.726706121445E-05  0.774735741341E-05  0.825939736158E-05  0.880527905509E-05  0.938723914832E-05
  0.100076621177E-04  0.106690900313E-04  0.113742329633E-04  0.121259800981E-04  0.129274115664E-04
  0.137818110654E-04  0.146926793112E-04  0.156637483817E-04  0.166989970060E-04  0.178026668649E-04
  0.189792799686E-04  0.202336571823E-04  0.215709379761E-04  0.229966014801E-04  0.245164889303E-04
  0.261368275985E-04  0.278642563022E-04  0.297058526010E-04  0.316691617896E-04  0.337622278059E-04
  0.359936261822E-04  0.383724991726E-04  0.409085932015E-04  0.436122987857E-04  0.464946930946E-04
  0.495675853214E-04  0.528435650517E-04  0.563360538268E-04  0.600593601135E-04  0.640287379045E-04
  0.682604491895E-04  0.727718305516E-04  0.775813641627E-04  0.827087534671E-04  0.881750038632E-04
  0.940025087122E-04  0.100215141027E-03  0.106838351212E-03  0.113899271262E-03  0.121426825831E-03
  0.129451850639E-03  0.138007218693E-03  0.147127974839E-03  0.156851479188E-03  0.167217560013E-03
  0.178268676735E-03  0.190050093652E-03  0.202610065133E-03  0.216000033036E-03  0.230274837125E-03
  0.245492939378E-03  0.261716663077E-03  0.279012447654E-03  0.297451120339E-03  0.317108185698E-03
  0.338064134258E-03  0.360404771445E-03  0.384221568189E-03  0.409612034611E-03  0.436680118300E-03
  0.465536628795E-03  0.496299689994E-03  0.529095222301E-03  0.564057456473E-03  0.601329481228E-03
  0.641063826829E-03  0.683423086966E-03  0.728580581473E-03  0.776721062500E-03  0.828041466988E-03
  0.882751718458E-03  0.941075581300E-03  0.100325157099E-02  0.106953392380E-02  0.114019362999E-02
  0.121551953433E-02  0.129581950858E-02  0.138142170037E-02  0.147267586342E-02  0.156995477434E-02
  0.167365574160E-02  0.178420221244E-02  0.190204548403E-02  0.202766652548E-02  0.216157791777E-02
  0.230432591894E-02  0.245649266256E-02  0.261869849773E-02  0.279160447948E-02  0.297591501904E-02
  0.317238070372E-02  0.338180129699E-02  0.360502892978E-02  0.384297149468E-02  0.409659625537E-02
  0.436693368430E-02  0.465508154220E-02  0.496220921392E-02  0.528956231568E-02  0.563846758961E-02
  0.601033810226E-02  0.640667876444E-02  0.682909219080E-02  0.727928491799E-02  0.775907400132E-02
  0.827039401059E-02  0.881530444640E-02  0.939599759912E-02  0.100148068734E-01  0.106742156015E-01
  0.113768663702E-01  0.121255708846E-01  0.129233203949E-01  0.137732967111E-01  0.146788838304E-01
  0.156436802026E-01  0.166715116586E-01  0.177664450254E-01  0.189328024512E-01  0.201751764616E-01
  0.214984457673E-01  0.229077918395E-01  0.244087162683E-01  0.260070589136E-01  0.277090168538E-01
  0.295211641335E-01  0.314504723011E-01  0.335043317241E-01  0.356905736540E-01  0.380174930081E-01
  0.404938718165E-01  0.431290032710E-01  0.459327162930E-01  0.489154005177E-01  0.520880315669E-01
  0.554621964571E-01  0.590501189569E-01  0.628646846736E-01  0.669194656068E-01  0.712287438610E-01
  0.758075341598E-01  0.806716047425E-01  0.858374961587E-01  0.913225374051E-01  0.971448587634E-01
  0.103323400607E+00  0.109877917345E+00  0.116828975553E+00  0.124197945226E+00  0.132006982940E+00
  0.140279005578E+00  0.149037653088E+00  0.158307238608E+00  0.168112684061E+00  0.178479439165E+00
  0.189433381569E+00  0.201000695635E+00  0.213207727145E+00  0.226080810995E+00  0.239646068748E+00
  0.253929172660E+00  0.268955072667E+00  0.284747682617E+00  0.301329521948E+00  0.318721308955E+00
  0.336941501824E+00  0.356005783734E+00  0.375926488622E+00  0.396711964631E+00  0.418365872905E+00
  0.440886420303E+00  0.464265525791E+00  0.488487921860E+00  0.513530194255E+00  0.539359765817E+00
  0.565933833236E+00  0.593198269177E+00  0.621086506602E+00  0.649518427171E+00  0.678399281539E+00
  0.707618676025E+00  0.737049667626E+00  0.766548017516E+00  0.795951661959E+00  0.825080468582E+00
  0.853736355011E+00  0.881703855321E+00  0.908751226891E+00  0.934632195261E+00  0.959088436067E+00
  0.981852889776E+00  0.100265399478E+01  0.102122090536E+01  0.103728973059E+01  0.105061078571E+01
  0.106095678593E+01  0.106813183156E+01  0.107198092964E+01  0.107239967047E+01  0.106934352644E+01
  0.106283606789E+01  0.105297520228E+01  0.103993634812E+01  0.102397126985E+01  0.100540114852E+01
  0.984602376673E+00  0.961983587333E+00  0.937952609184E+00  0.912872443460E+00  0.887006052155E+00
  0.860452991731E+00  0.833252801519E+00  0.805493529391E+00  0.777271453262E+00  0.748683201924E+00
  0.719825238096E+00  0.690793328435E+00  0.661681998628E+00  0.632583974907E+00  0.603589615957E+00
  0.574786343837E+00  0.546258085908E+00  0.518084744401E+00  0.490341709559E+00  0.463099436489E+00
  0.436423101234E+00  0.410372349293E+00  0.385001144350E+00  0.360357718717E+00  0.336484620467E+00
  0.313418845898E+00  0.291192040673E+00  0.269830748981E+00  0.249356687821E+00  0.229787023159E+00
  0.211134626457E+00  0.193408293773E+00  0.176612915230E+00  0.160749589661E+00  0.145815686884E+00
  0.131804867638E+00  0.118707077479E+00  0.106508535194E+00  0.951917379005E-01  0.847355037584E-01
  0.751150696074E-01  0.663022553859E-01  0.582657008795E-01  0.509711740036E-01  0.443819441832E-01
  0.384592099214E-01  0.331625665882E-01  0.284504988041E-01  0.242808814170E-01  0.206114737297E-01
  0.174003930790E-01  0.146065558390E-01  0.121900761971E-01  0.101126154439E-01  0.833767690013E-02
  0.683084384737E-02  0.555995988725E-02  0.449525295743E-02  0.360940576797E-02  0.287757666854E-02
  0.227737591772E-02  0.178880300745E-02
 ae wavefunction
  0.106376663925E-06  0.113087378605E-06  0.120167204093E-06  0.127639453829E-06  0.135528788460E-06
  0.143861306001E-06  0.152664629090E-06  0.161968008196E-06  0.171802424617E-06  0.182200702277E-06
  0.193197625722E-06  0.204830065916E-06  0.217137113874E-06  0.230160222704E-06  0.243943358664E-06
  0.258533161458E-06  0.273979115321E-06  0.290333730428E-06  0.307652736224E-06  0.325995286881E-06
  0.345424180108E-06  0.366006089849E-06  0.387811813984E-06  0.410916537952E-06  0.435400115356E-06
  0.461347366666E-06  0.488848397189E-06  0.517998935631E-06  0.548900694557E-06  0.581661754149E-06
  0.616396970934E-06  0.653228412956E-06  0.692285823209E-06  0.733707113374E-06  0.777638889272E-06
  0.824237010342E-06  0.873667187634E-06  0.926105617818E-06  0.981739656739E-06  0.104076854693E-05
  0.110340417959E-05  0.116987191516E-05  0.124041145028E-05  0.131527775374E-05  0.139474204600E-05
  0.147909285976E-05  0.156863715528E-05  0.166370152225E-05  0.176463344799E-05  0.187180267692E-05
  0.198560265527E-05  0.210645206859E-05  0.223479648729E-05  0.237111010771E-05  0.251589761940E-05
  0.266969618770E-05  0.283307756466E-05  0.300665034366E-05  0.319106235815E-05  0.338700323566E-05
  0.359520712234E-05  0.381645558329E-05  0.405158069433E-05  0.430146833255E-05  0.456706168813E-05
  0.484936499853E-05  0.514944753224E-05  0.546844782900E-05  0.580757822205E-05  0.616812964993E-05
  0.655147678881E-05  0.695908350829E-05  0.739250871641E-05  0.785341251676E-05  0.834356286693E-05
  0.886484257911E-05  0.941925683461E-05  0.100089411562E-04  0.106361699319E-04  0.113033654664E-04
  0.120131076347E-04  0.127681441654E-04  0.135714015958E-04  0.144259969312E-04  0.153352500788E-04
  0.163026970740E-04  0.173321041825E-04  0.184274829087E-04  0.195931059888E-04  0.208335244174E-04
  0.221535855856E-04  0.235584525931E-04  0.250536248132E-04  0.266449598029E-04  0.283386966199E-04
  0.301414806623E-04  0.320603901106E-04  0.341029640920E-04  0.362772326542E-04  0.385917486917E-04
  0.410556219312E-04  0.436785551078E-04  0.464708824889E-04  0.494436108723E-04  0.526084632391E-04
  0.559779252101E-04  0.595652945014E-04  0.633847335573E-04  0.674513255682E-04  0.717811340988E-04
  0.763912665059E-04  0.812999414902E-04  0.865265608942E-04  0.920917861720E-04  0.980176196869E-04
  0.104327491253E-03  0.111046350157E-03  0.118200763068E-03  0.125819018186E-03  0.133931235994E-03
  0.142569487043E-03  0.151767917245E-03  0.161562881049E-03  0.171993083077E-03  0.183099728700E-03
  0.194926684101E-03  0.207520646426E-03  0.220931324635E-03  0.235211631694E-03  0.250417888823E-03
  0.266610042508E-03  0.283851895072E-03  0.302211349609E-03  0.321760670146E-03  0.342576757962E-03
  0.364741445011E-03  0.388341805475E-03  0.413470486536E-03  0.440226059472E-03  0.468713392311E-03
  0.499044045277E-03  0.531336690368E-03  0.565717556476E-03  0.602320901510E-03  0.641289513072E-03
  0.682775239371E-03  0.726939551978E-03  0.773954142357E-03  0.824001553998E-03  0.877275852109E-03
  0.933983333047E-03  0.994343275554E-03  0.105858873622E-02  0.112696739142E-02  0.119974242835E-02
  0.127719348774E-02  0.135961766088E-02  0.144733054402E-02  0.154066735284E-02  0.163998410030E-02
  0.174565884096E-02  0.185809298508E-02  0.197771268610E-02  0.210497030488E-02  0.224034595445E-02
  0.238434912926E-02  0.253752042256E-02  0.270043333617E-02  0.287369618668E-02  0.305795411244E-02
  0.325389118548E-02  0.346223263297E-02  0.368374717262E-02  0.391924946659E-02  0.416960269843E-02
  0.443572127781E-02  0.471857367750E-02  0.501918540723E-02  0.533864212905E-02  0.567809291859E-02
  0.603875367649E-02  0.642191069441E-02  0.682892437938E-02  0.726123314047E-02  0.772035744098E-02
  0.820790401971E-02  0.872557028332E-02  0.927514887283E-02  0.985853240510E-02  0.104777183909E-01
  0.111348143293E-01  0.118320429787E-01  0.125717478014E-01  0.133563985807E-01  0.141885972064E-01
  0.150710836221E-01  0.160067419302E-01  0.169986066447E-01  0.180498690814E-01  0.191638838754E-01
  0.203441756103E-01  0.215944455427E-01  0.229185784032E-01  0.243206492528E-01  0.258049303683E-01
  0.273758981296E-01  0.290382398771E-01  0.307968607038E-01  0.326568901423E-01  0.346236887033E-01
  0.367028542167E-01  0.389002279233E-01  0.412219002565E-01  0.436742162521E-01  0.462637805150E-01
  0.489974616687E-01  0.518823962033E-01  0.549259916353E-01  0.581359288826E-01  0.615201637527E-01
  0.650869274339E-01  0.688447258721E-01  0.728023379090E-01  0.769688120484E-01  0.813534617116E-01
  0.859658588327E-01  0.908158256401E-01  0.959134244604E-01  0.101268945377E+00  0.106892891567E+00
  0.112795962129E+00  0.118989032231E+00  0.125483130367E+00  0.132289412540E+00  0.139419133179E+00
  0.146883612583E+00  0.154694200706E+00  0.162862237094E+00  0.171399006785E+00  0.180315691999E+00
  0.189623319469E+00  0.199332703246E+00  0.209454382872E+00  0.219998556817E+00  0.230975011094E+00
  0.242393043036E+00  0.254261380221E+00  0.266588094582E+00  0.279380511809E+00  0.292645116169E+00
  0.306387450937E+00  0.320612014691E+00  0.335322153768E+00  0.350519951235E+00  0.366206112781E+00
  0.382379849965E+00  0.399038761318E+00  0.416178711806E+00  0.433793711196E+00  0.451875791938E+00
  0.470414887181E+00  0.489398709712E+00  0.508812632750E+00  0.528639573860E+00  0.548859883775E+00
  0.569451242677E+00  0.590388567700E+00  0.611643937071E+00  0.633186538600E+00  0.654982653173E+00
  0.676995687222E+00  0.699186271025E+00  0.721512440233E+00  0.743929912254E+00  0.766392451467E+00
  0.788852281536E+00  0.811260448826E+00  0.833566982673E+00  0.855720672764E+00  0.877668340083E+00
  0.899353641378E+00  0.920715678287E+00  0.941687871102E+00  0.962197571128E+00  0.982166653878E+00
  0.100151294281E+01  0.102015199624E+01  0.103799875859E+01  0.105496880301E+01  0.107097916454E+01
  0.108594891129E+01  0.109979961459E+01  0.111245582358E+01  0.112384558912E+01  0.113390103858E+01
  0.114255898141E+01  0.114976151767E+01  0.115545662253E+01  0.115959868507E+01  0.116214898481E+01
  0.116307609610E+01  0.116235621367E+01  0.115997339636E+01  0.115591972875E+01  0.115019540070E+01
  0.114280870845E+01  0.113377597858E+01  0.112312142138E+01  0.111087691649E+01  0.109708173905E+01
  0.108178223082E+01  0.106503142542E+01  0.104688863368E+01  0.102741899768E+01  0.100669302031E+01
  0.984786077479E+00  0.961777919827E+00  0.937752167786E+00  0.912795806255E+00  0.886998680288E+00
  0.860452991731E+00  0.833252801519E+00  0.805493529391E+00  0.777271453262E+00  0.748683201924E+00
  0.719825238096E+00  0.690793328435E+00  0.661681998628E+00  0.632583974907E+00  0.603589615957E+00
  0.574786343837E+00  0.546258085908E+00  0.518084744401E+00  0.490341709559E+00  0.463099436489E+00
  0.436423101234E+00  0.410372349293E+00  0.385001144350E+00  0.360357718717E+00  0.336484620467E+00
  0.313418845898E+00  0.291192040673E+00  0.269830748981E+00  0.249356687821E+00  0.229787023159E+00
  0.211134626457E+00  0.193408293773E+00  0.176612915230E+00  0.160749589661E+00  0.145815686884E+00
  0.131804867638E+00  0.118707077479E+00  0.106508535194E+00  0.951917379005E-01  0.847355037584E-01
  0.751150696074E-01  0.663022553859E-01  0.582657008795E-01  0.509711740036E-01  0.443819441832E-01
  0.384592099214E-01  0.331625665882E-01  0.284504988041E-01  0.242808814170E-01  0.206114737297E-01
  0.174003930790E-01  0.146065558390E-01  0.121900761971E-01  0.101126154439E-01  0.833767690013E-02
  0.683084384737E-02  0.555995988725E-02  0.449525295743E-02  0.360940576797E-02  0.287757666854E-02
  0.227737591772E-02  0.178880300745E-02
 pseudo wavefunction
 -0.142177108330E-07 -0.151573934429E-07 -0.161591819300E-07 -0.172271810207E-07 -0.183657667324E-07
 -0.195796043043E-07 -0.208736673120E-07 -0.222532580471E-07 -0.237240292420E-07 -0.252920072319E-07
 -0.269636166468E-07 -0.287457067361E-07 -0.306455794322E-07 -0.326710192699E-07 -0.348303252825E-07
 -0.371323450063E-07 -0.395865107325E-07 -0.422028781547E-07 -0.449921675717E-07 -0.479658078124E-07
 -0.511359830642E-07 -0.545156827968E-07 -0.581187549848E-07 -0.619599628486E-07 -0.660550453453E-07
 -0.704207816571E-07 -0.750750599424E-07 -0.800369506308E-07 -0.853267845622E-07 -0.909662362900E-07
 -0.969784128907E-07 -0.103387948643E-06 -0.110221105962E-06 -0.117505883012E-06 -0.125272128418E-06
 -0.133551663576E-06 -0.142378413031E-06 -0.151788543484E-06 -0.161820611976E-06 -0.172515723878E-06
 -0.183917701311E-06 -0.196073262703E-06 -0.209032214215E-06 -0.222847653816E-06 -0.237576188843E-06
 -0.253278167948E-06 -0.270017928365E-06 -0.287864059533E-06 -0.306889684122E-06 -0.327172757658E-06
 -0.348796387925E-06 -0.371849175501E-06 -0.396425576781E-06 -0.422626291005E-06 -0.450558672861E-06
 -0.480337172360E-06 -0.512083803779E-06 -0.545928645605E-06 -0.582010373512E-06 -0.620476828571E-06
 -0.661485623011E-06 -0.705204786017E-06 -0.751813452209E-06 -0.801502595623E-06 -0.854475812207E-06
 -0.910950154028E-06 -0.971157018616E-06 -0.103534309709E-05 -0.110377138494E-05 -0.117672225960E-05
 -0.125449462931E-05 -0.133740715779E-05 -0.142579956996E-05 -0.152003404390E-05 -0.162049669484E-05
 -0.172759915718E-05 -0.184178027116E-05 -0.196350788087E-05 -0.209328075124E-05 -0.223163061160E-05
 -0.237912433439E-05 -0.253636625781E-05 -0.270400066200E-05 -0.288271440889E-05 -0.307323975646E-05
 -0.327635735906E-05 -0.349289946600E-05 -0.372375333153E-05 -0.396986485019E-05 -0.423224243241E-05
 -0.451196113631E-05 -0.481016707244E-05 -0.512808209980E-05 -0.546700883208E-05 -0.582833597482E-05
 -0.621354401526E-05 -0.662421128832E-05 -0.706202044336E-05 -0.752876533837E-05 -0.802635838979E-05
 -0.855683840809E-05 -0.912237895110E-05 -0.972529722948E-05 -0.103680636007E-04 -0.110533116904E-04
 -0.117838491829E-04 -0.125626693240E-04 -0.133929631852E-04 -0.142781327377E-04 -0.152218047897E-04
 -0.162278458463E-04 -0.173003779503E-04 -0.184437955700E-04 -0.196627836029E-04 -0.209623365697E-04
 -0.223477790760E-04 -0.238247876264E-04 -0.253994138799E-04 -0.270781094426E-04 -0.288677522973E-04
 -0.307756749815E-04 -0.328096946250E-04 -0.349781449743E-04 -0.372899105315E-04 -0.397544629495E-04
 -0.423818998319E-04 -0.451829860962E-04 -0.481691980697E-04 -0.513527704990E-04 -0.547467466649E-04
 -0.583650318083E-04 -0.622224500849E-04 -0.663348052833E-04 -0.707189455528E-04 -0.753928324076E-04
 -0.803756142885E-04 -0.856877049833E-04 -0.913508672270E-04 -0.973883018224E-04 -0.103824742647E-03
 -0.110686557934E-03 -0.118001858240E-03 -0.125800611544E-03 -0.134114765942E-03 -0.142978380447E-03
 -0.152427764418E-03 -0.162501626201E-03 -0.173241231570E-03 -0.184690572635E-03 -0.196896547894E-03
 -0.209909154162E-03 -0.223781691165E-03 -0.238570979641E-03 -0.254337593810E-03 -0.271146109195E-03
 -0.289065366773E-03 -0.308168754551E-03 -0.328534507699E-03 -0.350246028476E-03 -0.373392227231E-03
 -0.398067885880E-03 -0.424374045323E-03 -0.452418418382E-03 -0.482315829932E-03 -0.514188686002E-03
 -0.548167473754E-03 -0.584391294362E-03 -0.623008430938E-03 -0.664176953805E-03 -0.708065365561E-03
 -0.754853288528E-03 -0.804732197359E-03 -0.857906199745E-03 -0.914592868366E-03 -0.975024127411E-03
 -0.103944719723E-02 -0.110812560089E-02 -0.118134023667E-02 -0.125939052069E-02 -0.134259560443E-02
 -0.143129567163E-02 -0.152585332012E-02 -0.162665503364E-02 -0.173411274982E-02 -0.184866553018E-02
 -0.197078133890E-02 -0.210095893727E-02 -0.223972990113E-02 -0.238766076928E-02 -0.254535533099E-02
 -0.271345706163E-02 -0.289265171564E-02 -0.308367008678E-02 -0.328729094619E-02 -0.350434416932E-02
 -0.373571406360E-02 -0.398234290919E-02 -0.424523472598E-02 -0.452545928087E-02 -0.482415634984E-02
 -0.514254025036E-02 -0.548190466056E-02 -0.584362774221E-02 -0.622917758571E-02 -0.664011799603E-02
 -0.707811463969E-02 -0.754494157365E-02 -0.804248817797E-02 -0.857276651545E-02 -0.913791914189E-02
 -0.974022739213E-02 -0.103821201678E-01 -0.110661832538E-01 -0.117951691908E-01 -0.125720077343E-01
 -0.133998169267E-01 -0.142819148166E-01 -0.152218318529E-01 -0.162233239877E-01 -0.172903865178E-01
 -0.184272686979E-01 -0.196384891577E-01 -0.209288521518E-01 -0.223034646759E-01 -0.237677544763E-01
 -0.253274889805E-01 -0.269887951751E-01 -0.287581804512E-01 -0.306425544371E-01 -0.326492518302E-01
 -0.347860562366E-01 -0.370612250180E-01 -0.394835151380E-01 -0.420622099890E-01 -0.448071471696E-01
 -0.477287471675E-01 -0.508380428856E-01 -0.541467099324E-01 -0.576670975714E-01 -0.614122602010E-01
 -0.653959892047E-01 -0.696328449785E-01 -0.741381889000E-01 -0.789282149617E-01 -0.840199807377E-01
 -0.894314372924E-01 -0.951814575795E-01 -0.101289862796E+00 -0.107777446081E+00 -0.114665992841E+00
 -0.121978296897E+00 -0.129738171506E+00 -0.137970454194E+00 -0.146701004183E+00 -0.155956691043E+00
 -0.165765372992E+00 -0.176155863117E+00 -0.187157881526E+00 -0.198801991242E+00 -0.211119515379E+00
 -0.224142432898E+00 -0.237903249897E+00 -0.252434843169E+00 -0.267770272366E+00 -0.283942556835E+00
 -0.300984412836E+00 -0.318927946548E+00 -0.337804297922E+00 -0.357643230181E+00 -0.378472659490E+00
 -0.400318119130E+00 -0.423202152386E+00 -0.447143628336E+00 -0.472156974853E+00 -0.498251323415E+00
 -0.525429560831E+00 -0.553687283762E+00 -0.583011653021E+00 -0.613380146141E+00 -0.644759208644E+00
 -0.677102806954E+00 -0.710350889074E+00 -0.744427762931E+00 -0.779240407038E+00 -0.814676733614E+00
 -0.850603830840E+00 -0.886866218454E+00 -0.923284159398E+00 -0.959652079793E+00 -0.995737159912E+00
 -0.103127816995E+01 -0.106598463592E+01 -0.109953643244E+01 -0.113158391000E+01 -0.116174867354E+01
 -0.118962513584E+01 -0.121478297191E+01 -0.123677059762E+01 -0.125511978518E+01 -0.126935150798E+01
 -0.127898307452E+01 -0.128353656396E+01 -0.128254851183E+01 -0.127558071116E+01 -0.126223189171E+01
 -0.124214991818E+01 -0.121504401015E+01 -0.118069633845E+01 -0.113897220506E+01 -0.108982788145E+01
 -0.103331508749E+01 -0.969581066999E+00 -0.898863295438E+00 -0.821478083105E+00 -0.737802760793E+00
 -0.648251802675E+00 -0.553248190842E+00 -0.453192576603E+00 -0.348434326942E+00 -0.239250284819E+00
 -0.125840045614E+00 -0.837728405600E-02  0.112928572363E+00  0.237833859930E+00  0.000000000000E+00
  0.000000000000E+00  0.000000000000E+00  0.000000000000E+00  0.000000000000E+00  0.000000000000E+00
  0.000000000000E+00  0.000000000000E+00  0.000000000000E+00  0.000000000000E+00  0.000000000000E+00
  0.000000000000E+00  0.000000000000E+00  0.000000000000E+00  0.000000000000E+00  0.000000000000E+00
  0.000000000000E+00  0.000000000000E+00  0.000000000000E+00  0.000000000000E+00  0.000000000000E+00
  0.000000000000E+00  0.000000000000E+00  0.000000000000E+00  0.000000000000E+00  0.000000000000E+00
  0.000000000000E+00  0.000000000000E+00  0.000000000000E+00  0.000000000000E+00  0.000000000000E+00
  0.000000000000E+00  0.000000000000E+00  0.000000000000E+00  0.000000000000E+00  0.000000000000E+00
  0.000000000000E+00  0.000000000000E+00  0.000000000000E+00  0.000000000000E+00  0.000000000000E+00
  0.000000000000E+00  0.000000000000E+00  0.000000000000E+00  0.000000000000E+00  0.000000000000E+00
  0.000000000000E+00  0.000000000000E+00  0.000000000000E+00  0.000000000000E+00  0.000000000000E+00
  0.000000000000E+00  0.000000000000E+00
 ae wavefunction
 -0.164103091351E-06 -0.174455463598E-06 -0.185377249165E-06 -0.196904412867E-06 -0.209074997802E-06
 -0.221929264446E-06 -0.235509825264E-06 -0.249861803909E-06 -0.265032994127E-06 -0.281074032219E-06
 -0.298038579069E-06 -0.315983514204E-06 -0.334969141945E-06 -0.355059410534E-06 -0.376322145163E-06
 -0.398829295257E-06 -0.422657198395E-06 -0.447886860176E-06 -0.474604252453E-06 -0.502900630287E-06
 -0.532872869502E-06 -0.564623825652E-06 -0.598262716151E-06 -0.633905526948E-06 -0.671675445409E-06
 -0.711703321117E-06 -0.754128156397E-06 -0.799097628596E-06 -0.846768646160E-06 -0.897307940642E-06
 -0.950892697235E-06 -0.100771122609E-05 -0.106796367726E-05 -0.113186280233E-05 -0.119963476507E-05
 -0.127152000448E-05 -0.134777415731E-05 -0.142866903613E-05 -0.151449366839E-05 -0.160555541874E-05
 -0.170218116450E-05 -0.180471856155E-05 -0.191353738172E-05 -0.202903095671E-05 -0.215161768910E-05
 -0.228174268849E-05 -0.241987949208E-05 -0.256653191872E-05 -0.272223602534E-05 -0.288756220416E-05
 -0.306311741139E-05 -0.324954753910E-05 -0.344753995374E-05 -0.365782618201E-05 -0.388118479149E-05
 -0.411844444908E-05 -0.437048717744E-05 -0.463825183309E-05 -0.492273780696E-05 -0.522500896424E-05
 -0.554619784759E-05 -0.588751015119E-05 -0.625022949052E-05 -0.663572247845E-05 -0.704544414279E-05
 -0.748094368698E-05 -0.794387063565E-05 -0.843598137586E-05 -0.895914613337E-05 -0.951535639575E-05
 -0.101067328297E-04 -0.107355336978E-04 -0.114041638749E-04 -0.121151843471E-04 -0.128713224830E-04
 -0.136754828336E-04 -0.145307587244E-04 -0.154404445544E-04 -0.164080489451E-04 -0.174373087041E-04
 -0.185322037169E-04 -0.196969728114E-04 -0.209361306575E-04 -0.222544857528E-04 -0.236571596052E-04
 -0.251496071358E-04 -0.267376384335E-04 -0.284274419087E-04 -0.302256089645E-04 -0.321391602635E-04
 -0.341755737080E-04 -0.363428142333E-04 -0.386493655310E-04 -0.411042638498E-04 -0.437171339654E-04
 -0.464982274998E-04 -0.494584637120E-04 -0.526094729462E-04 -0.559636428708E-04 -0.595341677300E-04
 -0.633351007710E-04 -0.673814100523E-04 -0.716890378718E-04 -0.762749640132E-04 -0.811572730876E-04
 -0.863552261982E-04 -0.918893372343E-04 -0.977814540650E-04 -0.104054844955E-03 -0.110734290550E-03
 -0.117846181707E-03 -0.125418623704E-03 -0.133481546999E-03 -0.142066825192E-03 -0.151208400443E-03
 -0.160942416968E-03 -0.171307363004E-03 -0.182344221837E-03 -0.194096632474E-03 -0.206611060486E-03
 -0.219936979712E-03 -0.234127065533E-03 -0.249237400317E-03 -0.265327691906E-03 -0.282461505898E-03
 -0.300706512564E-03 -0.320134749319E-03 -0.340822899708E-03 -0.362852589880E-03 -0.386310703657E-03
 -0.411289717301E-03 -0.437888055184E-03 -0.466210467617E-03 -0.496368432175E-03 -0.528480579932E-03
 -0.562673148085E-03 -0.599080460546E-03 -0.637845438163E-03 -0.679120140310E-03 -0.723066339706E-03
 -0.769856132406E-03 -0.819672584999E-03 -0.872710421206E-03 -0.929176750127E-03 -0.989291838515E-03
 -0.105328992969E-02 -0.112142011158E-02 -0.119394723678E-02 -0.127115289761E-02 -0.135333645905E-02
 -0.144081615290E-02 -0.153393023652E-02 -0.163303821963E-02 -0.173852216293E-02 -0.185078805226E-02
 -0.197026725253E-02 -0.209741804542E-02 -0.223272725538E-02 -0.237671196842E-02 -0.252992134848E-02
 -0.269293855626E-02 -0.286638277574E-02 -0.305091135352E-02 -0.324722205676E-02 -0.345605545504E-02
 -0.367819743232E-02 -0.391448183489E-02 -0.416579326152E-02 -0.443307000218E-02 -0.471730713193E-02
 -0.501955976652E-02 -0.534094648655E-02 -0.568265293709E-02 -0.604593560961E-02 -0.643212581345E-02
 -0.684263384360E-02 -0.727895335216E-02 -0.774266593018E-02 -0.823544590702E-02 -0.875906537387E-02
 -0.931539943816E-02 -0.990643171507E-02 -0.105342600623E-01 -0.112011025636E-01 -0.119093037666E-01
 -0.126613411785E-01 -0.134598320256E-01 -0.143075402770E-01 -0.152073839377E-01 -0.161624426093E-01
 -0.171759653219E-01 -0.182513786318E-01 -0.193922949855E-01 -0.206025213441E-01 -0.218860680613E-01
 -0.232471580075E-01 -0.246902359286E-01 -0.262199780252E-01 -0.278413017375E-01 -0.295593757153E-01
 -0.313796299497E-01 -0.333077660415E-01 -0.353497675733E-01 -0.375119105514E-01 -0.398007738773E-01
 -0.422232498020E-01 -0.447865543141E-01 -0.474982374024E-01 -0.503661931308E-01 -0.533986694543E-01
 -0.566042776975E-01 -0.599920016099E-01 -0.635712059037E-01 -0.673516441700E-01 -0.713434660601E-01
 -0.755572236109E-01 -0.800038765785E-01 -0.846947966376E-01 -0.896417702907E-01 -0.948570003192E-01
 -0.100353105598E+00 -0.106143119081E+00 -0.112240483749E+00 -0.118659046313E+00 -0.125413048427E+00
 -0.132517115175E+00 -0.139986240576E+00 -0.147835769830E+00 -0.156081378025E+00 -0.164739045014E+00
 -0.173825026142E+00 -0.183355818528E+00 -0.193348122550E+00 -0.203818798220E+00 -0.214784816104E+00
 -0.226263202432E+00 -0.238270978076E+00 -0.250825091039E+00 -0.263942342125E+00 -0.277639303470E+00
 -0.291932229620E+00 -0.306836960865E+00 -0.322368818574E+00 -0.338542492298E+00 -0.355371918446E+00
 -0.372870150393E+00 -0.391049219931E+00 -0.409919990022E+00 -0.429491998904E+00 -0.449773295642E+00
 -0.470770267310E+00 -0.492487458080E+00 -0.514927380536E+00 -0.538090319651E+00 -0.561974129891E+00
 -0.586574026025E+00 -0.611882368216E+00 -0.637888442072E+00 -0.664578234350E+00 -0.691934205081E+00
 -0.719935056990E+00 -0.748555503243E+00 -0.777766034857E+00 -0.807532689609E+00 -0.837816825059E+00
 -0.868574899536E+00 -0.899758266726E+00 -0.931312992090E+00 -0.963179702756E+00 -0.995293487027E+00
 -0.102758386453E+01 -0.105997485235E+01 -0.109238515301E+01 -0.112472848119E+01 -0.115691401905E+01
 -0.118884693607E+01 -0.122042882781E+01 -0.125155784196E+01 -0.128212822453E+01 -0.131202910742E+01
 -0.134114260716E+01 -0.136934165117E+01 -0.139648822486E+01 -0.142243274388E+01 -0.144701489997E+01
 -0.147006574025E+01 -0.149141027353E+01 -0.151086986259E+01 -0.152826400540E+01 -0.154341151466E+01
 -0.155613132098E+01 -0.156624314113E+01 -0.157356816731E+01 -0.157792984269E+01 -0.157915472525E+01
 -0.157707341011E+01 -0.157152147104E+01 -0.156234038383E+01 -0.154937840294E+01 -0.153249137186E+01
 -0.151154345730E+01 -0.148640780346E+01 -0.145696710863E+01 -0.142311413079E+01 -0.138475213059E+01
 -0.134179526607E+01 -0.129416895118E+01 -0.124181019835E+01 -0.118466796171E+01 -0.112270350515E+01
 -0.105589081616E+01 -0.984217092207E+00 -0.907683323965E+00 -0.826305002468E+00 -0.740112975860E+00
 -0.649154481257E+00 -0.553494376406E+00 -0.453216592629E+00 -0.348425831062E+00 -0.239249519471E+00
 -0.125840045614E+00 -0.837728405600E-02  0.112928572363E+00  0.237833859930E+00  0.000000000000E+00
  0.000000000000E+00  0.000000000000E+00  0.000000000000E+00  0.000000000000E+00  0.000000000000E+00
  0.000000000000E+00  0.000000000000E+00  0.000000000000E+00  0.000000000000E+00  0.000000000000E+00
  0.000000000000E+00  0.000000000000E+00  0.000000000000E+00  0.000000000000E+00  0.000000000000E+00
  0.000000000000E+00  0.000000000000E+00  0.000000000000E+00  0.000000000000E+00  0.000000000000E+00
  0.000000000000E+00  0.000000000000E+00  0.000000000000E+00  0.000000000000E+00  0.000000000000E+00
  0.000000000000E+00  0.000000000000E+00  0.000000000000E+00  0.000000000000E+00  0.000000000000E+00
  0.000000000000E+00  0.000000000000E+00  0.000000000000E+00  0.000000000000E+00  0.000000000000E+00
  0.000000000000E+00  0.000000000000E+00  0.000000000000E+00  0.000000000000E+00  0.000000000000E+00
  0.000000000000E+00  0.000000000000E+00  0.000000000000E+00  0.000000000000E+00  0.000000000000E+00
  0.000000000000E+00  0.000000000000E+00  0.000000000000E+00  0.000000000000E+00  0.000000000000E+00
  0.000000000000E+00  0.000000000000E+00
 End of Dataset
  PAW_PBE Bi_d 06Sep2000                 
   15.0000000000000     
 parameters from PSCTR are:
   VRHFIN =Bi:
   LEXCH  = PE
   EATOM  =  1959.2045 eV,  143.9975 Ry

   TITEL  = PAW_PBE Bi_d 06Sep2000
   LULTRA =        F    use ultrasoft PP ?
   IUNSCR =        1    unscreen: 0-lin 1-nonlin 2-no
   RPACOR =    2.200    partial core radius
   POMASS =  208.980; ZVAL   =   15.000    mass and valenz
   RCORE  =    2.500    outmost cutoff radius
   RWIGS  =    3.090; RWIGS  =    1.635    wigner-seitz radius (au A)
   ENMAX  =  242.839; ENMIN  =  182.129 eV
   ICORE  =        3    local potential
   LCOR   =        T    correct aug charges
   LPAW   =        T    paw PP
   EAUG   =  442.899
   DEXC   =    0.000
   RMAX   =    2.551    core radius for proj-oper
   RAUG   =    1.300    factor for augmentation sphere
   RDEP   =    2.650    radius for radial grids
   RDEPT  =    2.039    core radius for aug-charge
 
   Atomic configuration
   16 entries
     n  l   j            E        occ.
     1  0  0.50    -90639.6581   2.0000
     2  0  0.50    -16282.4666   2.0000
     2  1  1.50    -13922.8286   6.0000
     3  0  0.50     -3930.4763   2.0000
     3  1  1.50     -3256.7013   6.0000
     3  2  2.50     -2581.6168  10.0000
     4  0  0.50      -902.2614   2.0000
     4  1  1.50      -681.5915   6.0000
     4  2  2.50      -429.8249  10.0000
     4  3  3.50      -152.6004  14.0000
     5  0  0.50      -157.7156   2.0000
     5  1  1.50       -95.8054   6.0000
     5  2  2.50       -27.0806  10.0000
     6  0  0.50       -14.4732   2.0000
     6  1  1.50        -4.5702   3.0000
     5  3  2.50        -2.7212   0.0000
   Description
     l       E           TYP  RCUT    TYP  RCUT
     2    -27.0805982     23  2.500
     2     -1.3605826     23  2.500
     0    -14.4732271     23  2.500
     0      6.8029130     23  2.500
     1     -4.5701651     23  2.500
     1     13.6058260     23  2.500
     3     -1.3605826      7  2.500
   Error from kinetic energy argument (eV)
   NDATA  =      100
   STEP   =   20.000   1.050
  167.      164.      163.      160.      159.      156.      153.      152.
  149.      146.      144.      141.      138.      134.      130.      127.
  123.      119.      115.      109.      104.      99.9      93.2      88.8
  84.3      77.6      71.1      66.7      60.4      54.3      48.5      43.0
  37.9      33.1      28.6      24.6      19.8      16.7      13.0      10.7
  8.08      5.97      4.31      3.03      2.07      1.37     0.881     0.482
 0.289     0.153     0.907E-01 0.701E-01 0.625E-01 0.617E-01 0.600E-01 0.550E-01
 0.472E-01 0.359E-01 0.251E-01 0.165E-01 0.108E-01 0.781E-02 0.664E-02 0.638E-02
 0.630E-02 0.584E-02 0.491E-02 0.375E-02 0.255E-02 0.182E-02 0.142E-02 0.131E-02
 0.129E-02 0.120E-02 0.991E-03 0.756E-03 0.539E-03 0.422E-03 0.386E-03 0.378E-03
 0.341E-03 0.271E-03 0.201E-03 0.156E-03 0.143E-03 0.138E-03 0.121E-03 0.923E-04
 0.706E-04 0.628E-04 0.602E-04 0.531E-04 0.403E-04 0.325E-04 0.302E-04 0.281E-04
 0.225E-04 0.179E-04 0.162E-04 0.151E-04
END of PSCTR-controll parameters
 local part
   75.5890395431569     
  0.11425464E+03  0.11425811E+03  0.11424908E+03  0.11423406E+03  0.11421310E+03
  0.11418625E+03  0.11415357E+03  0.11411510E+03  0.11407088E+03  0.11402091E+03
  0.11396518E+03  0.11390364E+03  0.11383621E+03  0.11376280E+03  0.11368327E+03
  0.11359749E+03  0.11350528E+03  0.11340648E+03  0.11330088E+03  0.11318829E+03
  0.11306848E+03  0.11294121E+03  0.11280623E+03  0.11266324E+03  0.11251194E+03
  0.11235199E+03  0.11218301E+03  0.11200459E+03  0.11181630E+03  0.11161769E+03
  0.11140826E+03  0.11118748E+03  0.11095483E+03  0.11070973E+03  0.11045159E+03
  0.11017981E+03  0.10989375E+03  0.10959277E+03  0.10927621E+03  0.10894338E+03
  0.10859360E+03  0.10822617E+03  0.10784039E+03  0.10743557E+03  0.10701102E+03
  0.10656603E+03  0.10609996E+03  0.10561213E+03  0.10510191E+03  0.10456870E+03
  0.10401190E+03  0.10343098E+03  0.10282542E+03  0.10219474E+03  0.10153853E+03
  0.10085640E+03  0.10014803E+03  0.99413158E+02  0.98651584E+02  0.97863168E+02
  0.97047841E+02  0.96205603E+02  0.95336529E+02  0.94440767E+02  0.93518543E+02
  0.92570162E+02  0.91596006E+02  0.90596541E+02  0.89572310E+02  0.88523941E+02
  0.87452141E+02  0.86357696E+02  0.85241473E+02  0.84104414E+02  0.82947536E+02
  0.81771929E+02  0.80578751E+02  0.79369226E+02  0.78144639E+02  0.76906333E+02
  0.75655706E+02  0.74394205E+02  0.73123318E+02  0.71844577E+02  0.70559542E+02
  0.69269806E+02  0.67976980E+02  0.66682692E+02  0.65388580E+02  0.64096283E+02
  0.62807439E+02  0.61523675E+02  0.60246603E+02  0.58977812E+02  0.57718866E+02
  0.56471292E+02  0.55236579E+02  0.54016170E+02  0.52811457E+02  0.51623777E+02
  0.50454405E+02  0.49304551E+02  0.48175356E+02  0.47067884E+02  0.45983125E+02
  0.44921987E+02  0.43885295E+02  0.42873789E+02  0.41888121E+02  0.40928855E+02
  0.39996467E+02  0.39091340E+02  0.38213768E+02  0.37363956E+02  0.36542019E+02
  0.35747982E+02  0.34981787E+02  0.34243289E+02  0.33532263E+02  0.32848403E+02
  0.32191330E+02  0.31560589E+02  0.30955660E+02  0.30375958E+02  0.29820835E+02
  0.29289592E+02  0.28781474E+02  0.28295685E+02  0.27831384E+02  0.27387696E+02
  0.26963716E+02  0.26558513E+02  0.26171135E+02  0.25800617E+02  0.25445985E+02
  0.25106258E+02  0.24780459E+02  0.24467614E+02  0.24166760E+02  0.23876950E+02
  0.23597254E+02  0.23326766E+02  0.23064606E+02  0.22809927E+02  0.22561912E+02
  0.22319783E+02  0.22082803E+02  0.21850273E+02  0.21621540E+02  0.21395997E+02
  0.21173083E+02  0.20952284E+02  0.20733135E+02  0.20515221E+02  0.20298174E+02
  0.20081675E+02  0.19865454E+02  0.19649286E+02  0.19432995E+02  0.19216447E+02
  0.18999553E+02  0.18782264E+02  0.18564570E+02  0.18346498E+02  0.18128111E+02
  0.17909499E+02  0.17690787E+02  0.17472123E+02  0.17253678E+02  0.17035644E+02
  0.16818231E+02  0.16601665E+02  0.16386181E+02  0.16172023E+02  0.15959444E+02
  0.15748696E+02  0.15540035E+02  0.15333710E+02  0.15129971E+02  0.14929056E+02
  0.14731196E+02  0.14536610E+02  0.14345505E+02  0.14158070E+02  0.13974480E+02
  0.13794894E+02  0.13619448E+02  0.13448262E+02  0.13281432E+02  0.13119037E+02
  0.12961132E+02  0.12807751E+02  0.12658906E+02  0.12514590E+02  0.12374773E+02
  0.12239407E+02  0.12108421E+02  0.11981730E+02  0.11859228E+02  0.11740795E+02
  0.11626295E+02  0.11515577E+02  0.11408478E+02  0.11304827E+02  0.11204438E+02
  0.11107123E+02  0.11012683E+02  0.10920916E+02  0.10831618E+02  0.10744583E+02
  0.10659603E+02  0.10576475E+02  0.10494996E+02  0.10414970E+02  0.10336204E+02
  0.10258513E+02  0.10181721E+02  0.10105661E+02  0.10030174E+02  0.99551136E+01
  0.98803453E+01  0.98057458E+01  0.97312052E+01  0.96566263E+01  0.95819256E+01
  0.95070329E+01  0.94318915E+01  0.93564582E+01  0.92807028E+01  0.92046080E+01
  0.91281690E+01  0.90513931E+01  0.89742988E+01  0.88969154E+01  0.88192825E+01
  0.87414486E+01  0.86634709E+01  0.85854141E+01  0.85073492E+01  0.84293531E+01
  0.83515072E+01  0.82738967E+01  0.81966092E+01  0.81197342E+01  0.80433619E+01
  0.79675822E+01  0.78924841E+01  0.78181545E+01  0.77446778E+01  0.76721345E+01
  0.76006013E+01  0.75301495E+01  0.74608453E+01  0.73927485E+01  0.73259127E+01
  0.72603843E+01  0.71962028E+01  0.71334001E+01  0.70720006E+01  0.70120212E+01
  0.69534711E+01  0.68963517E+01  0.68406573E+01  0.67863748E+01  0.67334841E+01
  0.66819583E+01  0.66317641E+01  0.65828625E+01  0.65352089E+01  0.64887536E+01
  0.64434426E+01  0.63992180E+01  0.63560186E+01  0.63137806E+01  0.62724378E+01
  0.62319228E+01  0.61921672E+01  0.61531022E+01  0.61146593E+01  0.60767709E+01
  0.60393705E+01  0.60023937E+01  0.59657783E+01  0.59294650E+01  0.58933978E+01
  0.58575242E+01  0.58217956E+01  0.57861678E+01  0.57506008E+01  0.57150594E+01
  0.56795131E+01  0.56439362E+01  0.56083080E+01  0.55726126E+01  0.55368390E+01
  0.55009808E+01  0.54650364E+01  0.54290086E+01  0.53929046E+01  0.53567355E+01
  0.53205161E+01  0.52842648E+01  0.52480028E+01  0.52117544E+01  0.51755460E+01
  0.51394062E+01  0.51033651E+01  0.50674540E+01  0.50317054E+01  0.49961517E+01
  0.49608261E+01  0.49257609E+01  0.48909882E+01  0.48565390E+01  0.48224430E+01
  0.47887284E+01  0.47554213E+01  0.47225460E+01  0.46901241E+01  0.46581750E+01
  0.46267153E+01  0.45957587E+01  0.45653160E+01  0.45353953E+01  0.45060015E+01
  0.44771365E+01  0.44487993E+01  0.44209861E+01  0.43936901E+01  0.43669018E+01
  0.43406091E+01  0.43147978E+01  0.42894510E+01  0.42645501E+01  0.42400747E+01
  0.42160027E+01  0.41923109E+01  0.41689748E+01  0.41459693E+01  0.41232688E+01
  0.41008471E+01  0.40786783E+01  0.40567365E+01  0.40349964E+01  0.40134333E+01
  0.39920234E+01  0.39707440E+01  0.39495741E+01  0.39284937E+01  0.39074847E+01
  0.38865309E+01  0.38656179E+01  0.38447332E+01  0.38238666E+01  0.38030099E+01
  0.37821569E+01  0.37613037E+01  0.37404484E+01  0.37195913E+01  0.36987346E+01
  0.36778824E+01  0.36570409E+01  0.36362177E+01  0.36154222E+01  0.35946652E+01
  0.35739586E+01  0.35533155E+01  0.35327499E+01  0.35122766E+01  0.34919107E+01
  0.34716678E+01  0.34515636E+01  0.34316138E+01  0.34118338E+01  0.33922387E+01
  0.33728429E+01  0.33536601E+01  0.33347030E+01  0.33159833E+01  0.32975116E+01
  0.32792970E+01  0.32613472E+01  0.32436685E+01  0.32262656E+01  0.32091415E+01
  0.31922977E+01  0.31757339E+01  0.31594483E+01  0.31434374E+01  0.31276960E+01
  0.31122176E+01  0.30969939E+01  0.30820156E+01  0.30672717E+01  0.30527503E+01
  0.30384382E+01  0.30243216E+01  0.30103856E+01  0.29966149E+01  0.29829937E+01
  0.29695056E+01  0.29561346E+01  0.29428641E+01  0.29296781E+01  0.29165608E+01
  0.29034966E+01  0.28904709E+01  0.28774696E+01  0.28644795E+01  0.28514885E+01
  0.28384854E+01  0.28254606E+01  0.28124054E+01  0.27993127E+01  0.27861768E+01
  0.27729934E+01  0.27597597E+01  0.27464745E+01  0.27331379E+01  0.27197516E+01
  0.27063188E+01  0.26928439E+01  0.26793328E+01  0.26657926E+01  0.26522318E+01
  0.26386596E+01  0.26250866E+01  0.26115239E+01  0.25979837E+01  0.25844785E+01
  0.25710214E+01  0.25576258E+01  0.25443053E+01  0.25310736E+01  0.25179443E+01
  0.25049307E+01  0.24920457E+01  0.24793019E+01  0.24667112E+01  0.24542847E+01
  0.24420327E+01  0.24299646E+01  0.24180885E+01  0.24064116E+01  0.23949398E+01
  0.23836779E+01  0.23726290E+01  0.23617953E+01  0.23511774E+01  0.23407746E+01
  0.23305848E+01  0.23206046E+01  0.23108294E+01  0.23012532E+01  0.22918688E+01
  0.22826679E+01  0.22736412E+01  0.22647783E+01  0.22560680E+01  0.22474983E+01
  0.22390565E+01  0.22307296E+01  0.22225040E+01  0.22143657E+01  0.22063007E+01
  0.21982951E+01  0.21903348E+01  0.21824061E+01  0.21744955E+01  0.21665900E+01
  0.21586773E+01  0.21507456E+01  0.21427839E+01  0.21347822E+01  0.21267313E+01
  0.21186231E+01  0.21104506E+01  0.21022080E+01  0.20938906E+01  0.20854950E+01
  0.20770190E+01  0.20684615E+01  0.20598229E+01  0.20511046E+01  0.20423094E+01
  0.20334410E+01  0.20245044E+01  0.20155058E+01  0.20064520E+01  0.19973511E+01
  0.19882119E+01  0.19790437E+01  0.19698569E+01  0.19606621E+01  0.19514704E+01
  0.19422932E+01  0.19331422E+01  0.19240292E+01  0.19149658E+01  0.19059638E+01
  0.18970344E+01  0.18881889E+01  0.18794377E+01  0.18707911E+01  0.18622585E+01
  0.18538487E+01  0.18455695E+01  0.18374282E+01  0.18294310E+01  0.18215829E+01
  0.18138884E+01  0.18063504E+01  0.17989712E+01  0.17917519E+01  0.17846923E+01
  0.17777914E+01  0.17710470E+01  0.17644560E+01  0.17580143E+01  0.17517166E+01
  0.17455571E+01  0.17395289E+01  0.17336243E+01  0.17278351E+01  0.17221525E+01
  0.17165670E+01  0.17110689E+01  0.17056479E+01  0.17002936E+01  0.16949956E+01
  0.16897431E+01  0.16845257E+01  0.16793328E+01  0.16741542E+01  0.16689800E+01
  0.16638007E+01  0.16586071E+01  0.16533909E+01  0.16481441E+01  0.16428596E+01
  0.16375308E+01  0.16321522E+01  0.16267189E+01  0.16212269E+01  0.16156731E+01
  0.16100552E+01  0.16043719E+01  0.15986228E+01  0.15928084E+01  0.15869300E+01
  0.15809897E+01  0.15749905E+01  0.15689363E+01  0.15628316E+01  0.15566814E+01
  0.15504917E+01  0.15442687E+01  0.15380192E+01  0.15317505E+01  0.15254702E+01
  0.15191859E+01  0.15129058E+01  0.15066380E+01  0.15003905E+01  0.14941716E+01
  0.14879891E+01  0.14818509E+01  0.14757645E+01  0.14697370E+01  0.14637752E+01
  0.14578855E+01  0.14520735E+01  0.14463446E+01  0.14407034E+01  0.14351539E+01
  0.14296993E+01  0.14243425E+01  0.14190853E+01  0.14139289E+01  0.14088740E+01
  0.14039204E+01  0.13990671E+01  0.13943126E+01  0.13896547E+01  0.13850906E+01
  0.13806167E+01  0.13762292E+01  0.13719234E+01  0.13676946E+01  0.13635372E+01
  0.13594457E+01  0.13554140E+01  0.13514360E+01  0.13475052E+01  0.13436152E+01
  0.13397593E+01  0.13359311E+01  0.13321241E+01  0.13283319E+01  0.13245484E+01
  0.13207677E+01  0.13169842E+01  0.13131926E+01  0.13093881E+01  0.13055662E+01
  0.13017229E+01  0.12978546E+01  0.12939585E+01  0.12900319E+01  0.12860729E+01
  0.12820801E+01  0.12780526E+01  0.12739901E+01  0.12698929E+01  0.12657616E+01
  0.12615976E+01  0.12574025E+01  0.12531785E+01  0.12489284E+01  0.12446550E+01
  0.12403617E+01  0.12360522E+01  0.12317304E+01  0.12274005E+01  0.12230667E+01
  0.12187335E+01  0.12144055E+01  0.12100872E+01  0.12057832E+01  0.12014980E+01
  0.11972361E+01  0.11930016E+01  0.11887986E+01  0.11846309E+01  0.11805022E+01
  0.11764157E+01  0.11723743E+01  0.11683806E+01  0.11644370E+01  0.11605452E+01
  0.11567068E+01  0.11529228E+01  0.11491938E+01  0.11455202E+01  0.11419018E+01
  0.11383380E+01  0.11348278E+01  0.11313700E+01  0.11279630E+01  0.11246047E+01
  0.11212928E+01  0.11180249E+01  0.11147981E+01  0.11116094E+01  0.11084558E+01
  0.11053339E+01  0.11022403E+01  0.10991715E+01  0.10961241E+01  0.10930946E+01
  0.10900795E+01  0.10870754E+01  0.10840791E+01  0.10810875E+01  0.10780977E+01
  0.10751069E+01  0.10721127E+01  0.10691128E+01  0.10661053E+01  0.10630884E+01
  0.10600607E+01  0.10570211E+01  0.10539689E+01  0.10509036E+01  0.10478250E+01
  0.10447332E+01  0.10416288E+01  0.10385124E+01  0.10353851E+01  0.10322482E+01
  0.10291032E+01  0.10259519E+01  0.10227962E+01  0.10196382E+01  0.10164803E+01
  0.10133247E+01  0.10101739E+01  0.10070305E+01  0.10038971E+01  0.10007761E+01
  0.99767013E+00  0.99458164E+00  0.99151304E+00  0.98846658E+00  0.98544440E+00
  0.98244847E+00  0.97948057E+00  0.97654227E+00  0.97363493E+00  0.97075967E+00
  0.96791738E+00  0.96510867E+00  0.96233392E+00  0.95959323E+00  0.95688646E+00
  0.95421319E+00  0.95157276E+00  0.94896424E+00  0.94638650E+00  0.94383814E+00
  0.94131758E+00  0.93882306E+00  0.93635263E+00  0.93390421E+00  0.93147560E+00
  0.92906449E+00  0.92666852E+00  0.92428526E+00  0.92191229E+00  0.91954717E+00
  0.91718749E+00  0.91483090E+00  0.91247515E+00  0.91011807E+00  0.90775763E+00
  0.90539195E+00  0.90301934E+00  0.90063828E+00  0.89824747E+00  0.89584584E+00
  0.89343252E+00  0.89100690E+00  0.88856863E+00  0.88611757E+00  0.88365386E+00
  0.88117786E+00  0.87869018E+00  0.87619169E+00  0.87368345E+00  0.87116678E+00
  0.86864316E+00  0.86611429E+00  0.86358202E+00  0.86104836E+00  0.85851543E+00
  0.85598547E+00  0.85346078E+00  0.85094372E+00  0.84843667E+00  0.84594203E+00
  0.84346216E+00  0.84099940E+00  0.83855598E+00  0.83613408E+00  0.83373575E+00
  0.83136288E+00  0.82901721E+00  0.82670032E+00  0.82441357E+00  0.82215810E+00
  0.81993484E+00  0.81774448E+00  0.81558746E+00  0.81346399E+00  0.81137402E+00
  0.80931723E+00  0.80729309E+00  0.80530079E+00  0.80333931E+00  0.80140739E+00
  0.79950353E+00  0.79762607E+00  0.79577311E+00  0.79394261E+00  0.79213238E+00
  0.79034008E+00  0.78856328E+00  0.78679947E+00  0.78504607E+00  0.78330047E+00
  0.78156007E+00  0.77982227E+00  0.77808451E+00  0.77634429E+00  0.77459921E+00
  0.77284698E+00  0.77108544E+00  0.76931258E+00  0.76752658E+00  0.76572580E+00
  0.76390882E+00  0.76207445E+00  0.76022171E+00  0.75834990E+00  0.75645855E+00
  0.75454742E+00  0.75261657E+00  0.75066628E+00  0.74869710E+00  0.74670980E+00
  0.74470543E+00  0.74268524E+00  0.74065071E+00  0.73860351E+00  0.73654551E+00
  0.73447875E+00  0.73240541E+00  0.73032781E+00  0.72824837E+00  0.72616956E+00
  0.72409395E+00  0.72202412E+00  0.71996265E+00  0.71791213E+00  0.71587508E+00
  0.71385397E+00  0.71185119E+00  0.70986901E+00  0.70790956E+00  0.70597484E+00
  0.70406666E+00  0.70218665E+00  0.70033620E+00  0.69851654E+00  0.69672862E+00
  0.69497318E+00  0.69325070E+00  0.69156142E+00  0.68990535E+00  0.68828221E+00
  0.68669151E+00  0.68513251E+00  0.68360421E+00  0.68210543E+00  0.68063472E+00
  0.67919048E+00  0.67777090E+00  0.67637399E+00  0.67499763E+00  0.67363957E+00
  0.67229745E+00  0.67096882E+00  0.66965119E+00  0.66834200E+00  0.66703871E+00
  0.66573874E+00  0.66443958E+00  0.66313877E+00  0.66183390E+00  0.66052267E+00
  0.65920291E+00  0.65787257E+00  0.65652977E+00  0.65517279E+00  0.65380012E+00
  0.65241043E+00  0.65100261E+00  0.64957578E+00  0.64812926E+00  0.64666263E+00
  0.64517568E+00  0.64366844E+00  0.64214118E+00  0.64059440E+00  0.63902881E+00
  0.63744533E+00  0.63584511E+00  0.63422948E+00  0.63259994E+00  0.63095818E+00
  0.62930600E+00  0.62764535E+00  0.62597829E+00  0.62430696E+00  0.62263357E+00
  0.62096038E+00  0.61928967E+00  0.61762374E+00  0.61596486E+00  0.61431527E+00
  0.61267714E+00  0.61105259E+00  0.60944361E+00  0.60785211E+00  0.60627983E+00
  0.60472838E+00  0.60319922E+00  0.60169361E+00  0.60021264E+00  0.59875721E+00
  0.59732802E+00  0.59592555E+00  0.59455010E+00  0.59320173E+00  0.59188033E+00
  0.59058557E+00  0.58931689E+00  0.58807358E+00  0.58685473E+00  0.58565923E+00
  0.58448583E+00  0.58333313E+00  0.58219959E+00  0.58108354E+00  0.57998323E+00
  0.57889679E+00  0.57782231E+00  0.57675783E+00  0.57570133E+00  0.57465082E+00
  0.57360426E+00  0.57255968E+00  0.57151513E+00  0.57046873E+00  0.56941866E+00
  0.56836321E+00  0.56730077E+00  0.56622986E+00  0.56514912E+00  0.56405736E+00
  0.56295351E+00  0.56183670E+00  0.56070619E+00  0.55956143E+00  0.55840206E+00
  0.55722787E+00  0.55603885E+00  0.55483514E+00  0.55361708E+00  0.55238516E+00
  0.55114002E+00  0.54988249E+00  0.54861350E+00  0.54733412E+00  0.54604556E+00
  0.54474911E+00  0.54344616E+00  0.54213818E+00  0.54082668E+00  0.53951325E+00
  0.53819948E+00  0.53688700E+00  0.53557743E+00  0.53427236E+00  0.53297336E+00
  0.53168197E+00  0.53039965E+00  0.52912777E+00  0.52786764E+00  0.52662047E+00
  0.52538733E+00  0.52416921E+00  0.52296695E+00  0.52178127E+00  0.52061274E+00
  0.51946180E+00  0.51832875E+00  0.51721374E+00  0.51611677E+00  0.51503770E+00
  0.51397626E+00  0.51293203E+00  0.51190448E+00  0.51089293E+00  0.50989662E+00
  0.50891466E+00  0.50794607E+00  0.50698981E+00  0.50604474E+00  0.50510968E+00
  0.50418339E+00  0.50326460E+00  0.50235204E+00  0.50144439E+00  0.50054038E+00
  0.49963871E+00  0.49873815E+00  0.49783749E+00  0.49693559E+00  0.49603135E+00
  0.49512377E+00  0.49421192E+00  0.49329497E+00  0.49237218E+00  0.49144291E+00
  0.49050665E+00  0.48956297E+00  0.48861158E+00  0.48765230E+00  0.48668504E+00
  0.48570987E+00  0.48472693E+00  0.48373651E+00  0.48273896E+00  0.48173477E+00
  0.48072450E+00  0.47970879E+00  0.47868838E+00  0.47766406E+00  0.47663667E+00
 gradient corrections used for XC
           5
 core charge-density (partial)
  0.11245764E+01  0.11241274E+01  0.11227814E+01  0.11205413E+01  0.11174121E+01
  0.11134006E+01  0.11085156E+01  0.11027678E+01  0.10961697E+01  0.10887356E+01
  0.10804817E+01  0.10714257E+01  0.10615871E+01  0.10509869E+01  0.10396476E+01
  0.10275932E+01  0.10148490E+01  0.10014416E+01  0.98739881E+00  0.97274944E+00
  0.95752335E+00  0.94175130E+00  0.92546485E+00  0.90869628E+00  0.89147845E+00
  0.87384473E+00  0.85582890E+00  0.83746503E+00  0.81878741E+00  0.79983040E+00
  0.78062838E+00  0.76121564E+00  0.74162627E+00  0.72189407E+00  0.70205248E+00
  0.68213449E+00  0.66217252E+00  0.64219839E+00  0.62224323E+00  0.60233738E+00
  0.58251034E+00  0.56279074E+00  0.54320622E+00  0.52378342E+00  0.50454791E+00
  0.48552416E+00  0.46673550E+00  0.44820405E+00  0.42995076E+00  0.41199530E+00
  0.39435611E+00  0.37705036E+00  0.36009393E+00  0.34350139E+00  0.32728607E+00
  0.31145996E+00  0.29603381E+00  0.28101707E+00  0.26641797E+00  0.25224348E+00
  0.23849936E+00  0.22519020E+00  0.21231942E+00  0.19988930E+00  0.18790106E+00
  0.17635485E+00  0.16524980E+00  0.15458407E+00  0.14435489E+00  0.13455859E+00
  0.12519068E+00  0.11624587E+00  0.10771810E+00  0.99600637E-01  0.91886090E-01
  0.84566464E-01  0.77633212E-01  0.71077285E-01  0.64889179E-01  0.59058983E-01
  0.53576427E-01  0.48430925E-01  0.43611628E-01  0.39107462E-01  0.34907173E-01
  0.30999371E-01  0.27372566E-01  0.24015214E-01  0.20915747E-01  0.18062615E-01
  0.15444315E-01  0.13049425E-01  0.10866637E-01  0.88847820E-02  0.70928576E-02
  0.54800536E-02  0.40357740E-02  0.27496584E-02  0.16116007E-02  0.61176642E-03
 -0.25939197E-03 -0.10111216E-02 -0.16523576E-02 -0.21917129E-02 -0.26374701E-02
 -0.29975749E-02 -0.32796309E-02 -0.34908962E-02 -0.36382811E-02 -0.37283476E-02
 -0.37673101E-02 -0.37610370E-02 -0.37150538E-02 -0.36345476E-02 -0.35243718E-02
 -0.33890524E-02 -0.32327951E-02 -0.30594927E-02 -0.28727343E-02 -0.26758135E-02
 -0.24717388E-02 -0.22632438E-02 -0.20527972E-02 -0.18426146E-02 -0.16346693E-02
 -0.14307038E-02 -0.12322418E-02 -0.10405997E-02 -0.85689860E-03 -0.68207599E-03
 -0.51689775E-03 -0.36196970E-03 -0.21774920E-03 -0.84556464E-04  0.37414229E-04
  0.14808370E-03  0.24747727E-03  0.33571447E-03  0.41299912E-03  0.47960975E-03
  0.53589046E-03  0.58224209E-03  0.61911393E-03  0.64699572E-03  0.66641021E-03
  0.67790607E-03  0.68205133E-03  0.67942719E-03  0.67062231E-03  0.65622756E-03
  0.63683120E-03  0.61301446E-03  0.58534756E-03  0.55438619E-03  0.52066833E-03
  0.48471146E-03  0.44701022E-03  0.40803434E-03  0.36822693E-03  0.32800320E-03
  0.28774934E-03  0.24782181E-03  0.20854684E-03  0.17022022E-03  0.13310734E-03
  0.97443398E-04  0.63433881E-04  0.31255170E-04  0.10553495E-05 -0.27044851E-04
 -0.52950981E-04 -0.76593676E-04 -0.97927368E-04 -0.11692892E-03 -0.13359618E-03
 -0.14794651E-03 -0.16001522E-03 -0.16985408E-03 -0.17752969E-03 -0.18312195E-03
 -0.18672251E-03 -0.18843322E-03 -0.18836463E-03 -0.18663454E-03 -0.18336657E-03
 -0.17868877E-03 -0.17273235E-03 -0.16563044E-03 -0.15751687E-03 -0.14852511E-03
 -0.13878721E-03 -0.12843290E-03 -0.11758865E-03 -0.10637697E-03 -0.94915603E-04
 -0.83316982E-04 -0.71687633E-04 -0.60127729E-04 -0.48730689E-04 -0.37582869E-04
 -0.26763320E-04 -0.16343608E-04 -0.63877193E-05  0.30479891E-05  0.11914767E-04
  0.20171396E-04  0.27784066E-04  0.34726193E-04  0.40978205E-04  0.46527281E-04
  0.51367053E-04  0.55497283E-04  0.58923505E-04  0.61656650E-04  0.63712651E-04
  0.65112028E-04  0.65879468E-04  0.66043396E-04  0.65635539E-04  0.64690491E-04
  0.63245287E-04  0.61338968E-04  0.59012171E-04  0.56306721E-04  0.53265232E-04
  0.49930740E-04  0.46346333E-04  0.42554817E-04  0.38598391E-04  0.34518351E-04
  0.30354816E-04  0.26146472E-04  0.21930346E-04  0.17741607E-04  0.13613382E-04
  0.95766042E-05  0.56598875E-05  0.18894190E-05 -0.17111200E-05 -0.51206117E-05
 -0.83205364E-05 -0.11294986E-04 -0.14030655E-04 -0.16516818E-04 -0.18745280E-04
 -0.20710315E-04 -0.22408591E-04 -0.23839076E-04 -0.25002933E-04 -0.25903404E-04
 -0.26545681E-04 -0.26936774E-04 -0.27085366E-04 -0.27001665E-04 -0.26697252E-04
 -0.26184922E-04 -0.25478532E-04 -0.24592836E-04 -0.23543329E-04 -0.22346096E-04
 -0.21017651E-04 -0.19574796E-04 -0.18034470E-04 -0.16413612E-04 -0.14729032E-04
 -0.12997283E-04 -0.11234542E-04 -0.94565049E-05 -0.76782820E-05 -0.59143094E-05
 -0.41782653E-05 -0.24829973E-05 -0.84045996E-06  0.73833939E-06  0.22433841E-05
  0.36656825E-05  0.49972934E-05  0.62313413E-05  0.73620239E-05  0.83846104E-05
  0.92954320E-05  0.10091865E-04  0.10772305E-04  0.11336137E-04  0.11783698E-04
  0.12116233E-04  0.12335847E-04  0.12445452E-04  0.12448712E-04  0.12349980E-04
  0.12154238E-04  0.11867030E-04  0.11494398E-04  0.11042812E-04  0.10519100E-04
  0.99303881E-05  0.92840232E-05  0.85875131E-05  0.78484593E-05  0.70744942E-05
  0.62732207E-05  0.54521542E-05  0.46186673E-05  0.37799386E-05  0.29429044E-05
  0.21142141E-05  0.13001902E-05  0.50679191E-06 -0.26041715E-06 -0.99629642E-06
 -0.16961521E-05 -0.23557560E-05 -0.29713607E-05 -0.35397099E-05 -0.40580447E-05
 -0.45241064E-05 -0.49361342E-05 -0.52928608E-05 -0.55935025E-05 -0.58377477E-05
 -0.60257412E-05 -0.61580659E-05 -0.62357218E-05 -0.62601027E-05 -0.62329707E-05
 -0.61564285E-05 -0.60328909E-05 -0.58650542E-05 -0.56558650E-05 -0.54084880E-05
 -0.51262737E-05 -0.48127252E-05 -0.44714657E-05 -0.41062061E-05 -0.37207126E-05
 -0.33187761E-05 -0.29041811E-05 -0.24806771E-05 -0.20519508E-05 -0.16215991E-05
 -0.11931050E-05 -0.76981437E-06 -0.35491466E-06  0.48584032E-07  0.43786623E-06
  0.81032609E-06  0.11635803E-05  0.14954789E-05  0.18041137E-05  0.20878250E-05
  0.23452057E-05  0.25751036E-05  0.27766215E-05  0.29491157E-05  0.30921922E-05
  0.32057010E-05  0.32897296E-05  0.33445937E-05  0.33708276E-05  0.33691721E-05
  0.33405625E-05  0.32861142E-05  0.32071087E-05  0.31049775E-05  0.29812866E-05
  0.28377195E-05  0.26760604E-05  0.24981773E-05  0.23060044E-05  0.21015251E-05
  0.18867549E-05  0.16637252E-05  0.14344663E-05  0.12009922E-05  0.96528553E-06
  0.72928289E-06  0.49486151E-06  0.26382655E-06  0.37899414E-07 -0.18129293E-06
 -0.39222757E-06 -0.59349419E-06 -0.78380239E-06 -0.96198797E-06 -0.11270180E-05
 -0.12779946E-05 -0.14141579E-05 -0.15348874E-05 -0.16397026E-05 -0.17282623E-05
 -0.18003632E-05 -0.18559368E-05 -0.18950459E-05 -0.19178807E-05 -0.19247523E-05
 -0.19160877E-05 -0.18924222E-05 -0.18543926E-05 -0.18027286E-05 -0.17382447E-05
 -0.16618313E-05 -0.15744454E-05 -0.14771012E-05 -0.13708609E-05 -0.12568244E-05
 -0.11361203E-05 -0.10098959E-05 -0.87930770E-06 -0.74551265E-06 -0.60965872E-06
 -0.47287647E-06 -0.33627075E-06 -0.20091292E-06 -0.67833531E-07  0.61984496E-07
  0.18761207E-06  0.30817959E-06  0.42288193E-06  0.53098287E-06  0.63181876E-06
  0.72480162E-06  0.80942151E-06  0.88524827E-06  0.95193256E-06  0.10092063E-05
  0.10568823E-05  0.10948539E-05  0.11230927E-05  0.11416475E-05  0.11506411E-05
  0.11502674E-05  0.11407882E-05  0.11225291E-05  0.10958752E-05  0.10612663E-05
  0.10191923E-05  0.97018793E-06  0.91482725E-06  0.85371825E-06  0.78749717E-06
  0.71682281E-06  0.64237082E-06  0.56482801E-06  0.48488673E-06  0.40323937E-06
  0.32057301E-06  0.23756421E-06  0.15487409E-06  0.73143616E-07 -0.70108101E-08
 -0.85001479E-07 -0.16027315E-06 -0.23230647E-06 -0.30062108E-06 -0.36477824E-06
 -0.42438317E-06 -0.47908695E-06 -0.52858798E-06 -0.57263308E-06 -0.61101820E-06
 -0.64358871E-06 -0.67023929E-06 -0.69091348E-06 -0.70560284E-06 -0.71434578E-06
 -0.71722606E-06 -0.71437093E-06 -0.70594908E-06 -0.69216823E-06 -0.67327257E-06
 -0.64953989E-06 -0.62127859E-06 -0.58882453E-06 -0.55253772E-06 -0.51279893E-06
 -0.47000622E-06 -0.42457141E-06 -0.37691658E-06 -0.32747050E-06 -0.27666521E-06
 -0.22493253E-06 -0.17270076E-06 -0.12039146E-06 -0.68416347E-07 -0.17174354E-07
  0.32951139E-07  0.81594882E-07  0.12841213E-06  0.17308082E-06  0.21530348E-06
  0.25480894E-06  0.29135381E-06  0.32472362E-06  0.35473384E-06  0.38123056E-06
  0.40409092E-06  0.42322330E-06  0.43856733E-06  0.45009353E-06  0.45780287E-06
  0.46172596E-06  0.46192214E-06  0.45847834E-06  0.45150773E-06  0.44114824E-06
  0.42756087E-06  0.41092794E-06  0.39145116E-06  0.36934958E-06  0.34485754E-06
  0.31822247E-06  0.28970267E-06  0.25956507E-06  0.22808293E-06  0.19553362E-06
  0.16219638E-06  0.12835007E-06  0.94271088E-07  0.60231227E-07  0.26495727E-07
 -0.66786472E-08 -0.39045388E-07 -0.70369920E-07 -0.10043113E-06 -0.12902279E-06
 -0.15595478E-06 -0.18105421E-06 -0.20416637E-06 -0.22515549E-06 -0.24390539E-06
 -0.26031989E-06 -0.27432317E-06 -0.28585982E-06 -0.29489486E-06 -0.30141353E-06
 -0.30542097E-06 -0.30694172E-06 -0.30601907E-06 -0.30271437E-06 -0.29710611E-06
 -0.28928893E-06 -0.27937255E-06 -0.26748058E-06 -0.25374925E-06 -0.23832611E-06
 -0.22136857E-06 -0.20304257E-06 -0.18352100E-06 -0.16298229E-06 -0.14160890E-06
 -0.11958577E-06 -0.97098885E-07 -0.74333818E-07 -0.51474271E-07 -0.28700719E-07
 -0.61890763E-08  0.15890560E-07  0.37375102E-07  0.58109582E-07  0.77948175E-07
  0.96755126E-07  0.11440559E-06  0.13078637E-06  0.14579651E-06  0.15934788E-06
  0.17136550E-06  0.18178792E-06  0.19056736E-06  0.19766981E-06  0.20307500E-06
  0.20677625E-06  0.20878027E-06  0.20910679E-06  0.20778818E-06  0.20486889E-06
  0.20040487E-06  0.19446291E-06  0.18711990E-06  0.17846199E-06  0.16858379E-06
  0.15758742E-06  0.14558156E-06  0.13268052E-06  0.11900320E-06  0.10467211E-06
  0.89812290E-07  0.74550372E-07  0.59013510E-07  0.43328410E-07  0.27620353E-07
  0.12012260E-07 -0.33762125E-08 -0.18429530E-07 -0.33037090E-07 -0.47093979E-07
 -0.60501663E-07 -0.73168629E-07 -0.85010943E-07 -0.95952751E-07 -0.10592670E-06
 -0.11487430E-06 -0.12274619E-06 -0.12950232E-06 -0.13511211E-06 -0.13955447E-06
 -0.14281781E-06 -0.14489990E-06 -0.14580771E-06 -0.14555720E-06 -0.14417301E-06
 -0.14168809E-06 -0.13814326E-06 -0.13358681E-06 -0.12807391E-06 -0.12166608E-06
 -0.11443059E-06 -0.10643982E-06 -0.97770620E-07 -0.88503600E-07 -0.78722460E-07
 -0.68513273E-07 -0.57963773E-07 -0.47162649E-07 -0.36198837E-07 -0.25160833E-07
 -0.14136013E-07 -0.32099817E-08  0.75340553E-08  0.18015889E-07  0.28158871E-07
  0.37890434E-07  0.47142580E-07  0.55852316E-07  0.63962047E-07  0.71419918E-07
  0.78180108E-07  0.84203067E-07  0.89455710E-07  0.93911544E-07  0.97550752E-07
  0.10036022E-06  0.10233352E-06  0.10347083E-06  0.10377880E-06  0.10327038E-06
  0.10196464E-06  0.99886463E-07  0.97066257E-07  0.93539634E-07  0.89347024E-07
  0.84533279E-07  0.79147243E-07  0.73241302E-07  0.66870915E-07  0.60094128E-07
  0.52971078E-07  0.45563492E-07  0.37934178E-07  0.30146523E-07  0.22263990E-07
  0.14349629E-07  0.64655956E-08 -0.13273131E-08 -0.89701033E-08 -0.16406008E-07
 -0.23580884E-07 -0.30443587E-07 -0.36946307E-07 -0.43044885E-07 -0.48699081E-07
 -0.53872821E-07 -0.58534399E-07 -0.62656644E-07 -0.66217048E-07 -0.69197861E-07
 -0.71586139E-07 -0.73373760E-07 -0.74557406E-07 -0.75138495E-07 -0.75123095E-07
 -0.74521790E-07 -0.73349520E-07 -0.71625391E-07 -0.69372451E-07 -0.66617444E-07
 -0.63390540E-07 -0.59725042E-07 -0.55657071E-07 -0.51225241E-07 -0.46470317E-07
 -0.41434861E-07 -0.36162873E-07 -0.30699426E-07 -0.25090299E-07 -0.19381612E-07
 -0.13619463E-07 -0.78495700E-08 -0.21169299E-08  0.35345222E-08  0.90622318E-08
  0.14425331E-07  0.19584924E-07  0.24504355E-07  0.29149456E-07  0.33488762E-07
  0.37493714E-07  0.41138827E-07  0.44401838E-07  0.47263819E-07  0.49709271E-07
  0.51726184E-07  0.53306072E-07  0.54443976E-07  0.55138448E-07  0.55391501E-07
  0.55208533E-07  0.54598233E-07  0.53572455E-07  0.52146078E-07  0.50336835E-07
  0.48165133E-07  0.45653851E-07  0.42828116E-07  0.39715081E-07  0.36343674E-07
  0.32744348E-07  0.28948823E-07  0.24989814E-07  0.20900768E-07  0.16715590E-07
  0.12468374E-07  0.81931381E-08  0.39235606E-08 -0.30727295E-09 -0.44671166E-08
 -0.85247992E-08 -0.12450447E-07 -0.16215696E-07 -0.19793883E-07 -0.23160225E-07
 -0.26291984E-07 -0.29168603E-07 -0.31771837E-07 -0.34085849E-07 -0.36097301E-07
 -0.37795412E-07 -0.39172000E-07 -0.40221507E-07 -0.40940999E-07 -0.41330143E-07
 -0.41391173E-07 -0.41128828E-07 -0.40550279E-07 -0.39665031E-07 -0.38484815E-07
 -0.37023462E-07 -0.35296762E-07 -0.33322311E-07 -0.31119347E-07 -0.28708575E-07
 -0.26111985E-07 -0.23352659E-07 -0.20454581E-07 -0.17442429E-07 -0.14341384E-07
 -0.11176917E-07 -0.79745957E-08 -0.47598816E-08 -0.15579353E-08  0.16065725E-08
  0.47096442E-08  0.77281306E-08  0.10639896E-07  0.13423975E-07  0.16060715E-07
  0.18531905E-07  0.20820903E-07  0.22912729E-07  0.24794163E-07  0.26453818E-07
  0.27882200E-07  0.29071750E-07  0.30016876E-07  0.30713964E-07  0.31161378E-07
  0.31359439E-07  0.31310397E-07  0.31018378E-07  0.30489332E-07  0.29730951E-07
  0.28752590E-07  0.27565164E-07  0.26181045E-07  0.24613939E-07  0.22878766E-07
  0.20991521E-07  0.18969138E-07  0.16829343E-07  0.14590505E-07  0.12271487E-07
  0.98914897E-08  0.74698996E-08  0.50261366E-08  0.25795028E-08  0.14903571E-09
 -0.22466355E-08 -0.45894276E-08 -0.68619346E-08 -0.90475528E-08 -0.11130597E-07
 -0.13096408E-07 -0.14931450E-07 -0.16623401E-07 -0.18161226E-07 -0.19535249E-07
 -0.20737203E-07 -0.21760273E-07 -0.22599133E-07 -0.23249959E-07 -0.23710439E-07
 -0.23979771E-07 -0.24058642E-07 -0.23949206E-07 -0.23655045E-07 -0.23181118E-07
 -0.22533704E-07 -0.21720335E-07 -0.20749722E-07 -0.19631663E-07 -0.18376962E-07
 -0.16997320E-07 -0.15505241E-07 -0.13913920E-07 -0.12237128E-07 -0.10489104E-07
 -0.86844332E-08 -0.68379300E-08 -0.49645222E-08 -0.30791325E-08 -0.11965639E-08
  0.66861357E-09  0.25021714E-08  0.42903283E-08  0.60198499E-08  0.76781436E-08
  0.92533466E-08  0.10734407E-07  0.12111158E-07  0.13374385E-07  0.14515881E-07
  0.15528497E-07  0.16406184E-07  0.17144021E-07  0.17738240E-07  0.18186238E-07
  0.18486580E-07  0.18638995E-07  0.18644361E-07  0.18504682E-07  0.18223059E-07
  0.17803648E-07  0.17251612E-07  0.16573073E-07  0.15775046E-07  0.14865373E-07
  0.13852655E-07  0.12746170E-07  0.11555793E-07  0.10291916E-07  0.89653547E-08
  0.75872614E-08  0.61690350E-08  0.47222289E-08  0.32584592E-08  0.17893144E-08
  0.32626643E-09 -0.11194169E-08 -0.25367556E-08 -0.39151389E-08 -0.52444020E-08
 -0.65148987E-08 -0.77175685E-08 -0.88439992E-08 -0.98864827E-08 -0.10838065E-07
 -0.11692591E-07 -0.12444738E-07 -0.13090051E-07 -0.13624958E-07 -0.14046794E-07
 -0.14353802E-07 -0.14545141E-07 -0.14620873E-07 -0.14581958E-07 -0.14430228E-07
 -0.14168366E-07 -0.13799870E-07 -0.13329019E-07 -0.12760826E-07 -0.12100992E-07
 -0.11355850E-07 -0.10532312E-07 -0.96378034E-08 -0.86802017E-08 -0.76677682E-08
 -0.66090797E-08 -0.55129578E-08 -0.43883978E-08 -0.32444965E-08 -0.20903810E-08
 -0.93513722E-09  0.21225926E-09  0.13430114E-08  0.24485662E-08  0.35206778E-08
  0.45514669E-08  0.55334771E-08  0.64597268E-08  0.73237572E-08  0.81196752E-08
  0.88421916E-08  0.94866543E-08  0.10049076E-07  0.10526155E-07  0.10915295E-07
  0.11214613E-07  0.11422946E-07  0.11539850E-07  0.11565594E-07  0.11501152E-07
  0.11348181E-07  0.11109002E-07  0.10786576E-07  0.10384468E-07  0.99068162E-08
  0.93582892E-08  0.87440454E-08  0.80696860E-08  0.73412064E-08  0.65649442E-08
  0.57475265E-08  0.48958149E-08  0.40168492E-08  0.31177909E-08  0.22058665E-08
  0.12883104E-08  0.37230925E-09 -0.53505301E-09 -0.14268488E-08 -0.22963584E-08
 -0.31371191E-08 -0.39429721E-08 -0.47081062E-08 -0.54270984E-08 -0.60949507E-08
 -0.67071240E-08 -0.72595666E-08 -0.77487401E-08 -0.81716399E-08 -0.85258122E-08
 -0.88093654E-08 -0.90209785E-08 -0.91599037E-08 -0.92259653E-08 -0.92195536E-08
 -0.91416153E-08 -0.89936391E-08 -0.87776374E-08 -0.84961243E-08 -0.81520902E-08
 -0.77489724E-08 -0.72906234E-08 -0.67812757E-08 -0.62255048E-08 -0.56281892E-08
 -0.49944692E-08 -0.43297039E-08 -0.36394273E-08 -0.29293029E-08 -0.22050789E-08
 -0.14725424E-08 -0.73747435E-09 -0.56048116E-11  0.71743059E-09  0.14261331E-08
  0.21151818E-08  0.27794723E-08  0.34141537E-08  0.40146633E-08  0.45767578E-08
  0.50965427E-08  0.55704980E-08  0.59955008E-08  0.63688450E-08  0.66882566E-08
  0.69519068E-08  0.71584201E-08  0.73068800E-08  0.73968303E-08  0.74282732E-08
 kinetic energy density (partial)
  0.14218883E+03  0.14213226E+03  0.14196268E+03  0.14168045E+03  0.14128619E+03
  0.14078078E+03  0.14016529E+03  0.13944108E+03  0.13860971E+03  0.13767298E+03
  0.13663292E+03  0.13549174E+03  0.13425190E+03  0.13291603E+03  0.13148695E+03
  0.12996768E+03  0.12836138E+03  0.12667141E+03  0.12490123E+03  0.12305448E+03
  0.12113490E+03  0.11914635E+03  0.11709280E+03  0.11497830E+03  0.11280699E+03
  0.11058304E+03  0.10831072E+03  0.10599430E+03  0.10363809E+03  0.10124641E+03
  0.98823587E+02  0.96373938E+02  0.93901750E+02  0.91411278E+02  0.88906734E+02
  0.86392269E+02  0.83871972E+02  0.81349851E+02  0.78829829E+02  0.76315734E+02
  0.73811288E+02  0.71320102E+02  0.68845667E+02  0.66391347E+02  0.63960374E+02
  0.61555842E+02  0.59180700E+02  0.56837750E+02  0.54529642E+02  0.52258871E+02
  0.50027775E+02  0.47838532E+02  0.45693159E+02  0.43593510E+02  0.41541279E+02
  0.39537998E+02  0.37585036E+02  0.35683603E+02  0.33834754E+02  0.32039384E+02
  0.30298238E+02  0.28611912E+02  0.26980854E+02  0.25405369E+02  0.23885627E+02
  0.22421664E+02  0.21013385E+02  0.19660575E+02  0.18362898E+02  0.17119908E+02
  0.15931050E+02  0.14795670E+02  0.13713019E+02  0.12682257E+02  0.11702463E+02
  0.10772638E+02  0.98917157E+01  0.90585615E+01  0.82719845E+01  0.75307415E+01
  0.68335430E+01  0.61790590E+01  0.55659252E+01  0.49927482E+01  0.44581111E+01
  0.39605789E+01  0.34987036E+01  0.30710291E+01  0.26760960E+01  0.23124460E+01
  0.19786265E+01  0.16731944E+01  0.13947201E+01  0.11417914E+01  0.91301619E+00
  0.70702645E+00  0.52248059E+00  0.35806635E+00  0.21250322E+00  0.84544645E-01
 -0.27020018E-01 -0.12336375E+00 -0.20562036E+00 -0.27488317E+00 -0.33220395E+00
 -0.37859205E+00 -0.41501372E+00 -0.44239162E+00 -0.46160453E+00 -0.47348725E+00
 -0.47883062E+00 -0.47838177E+00 -0.47284444E+00 -0.46287949E+00 -0.44910556E+00
 -0.43209978E+00 -0.41239866E+00 -0.39049905E+00 -0.36685920E+00 -0.34189988E+00
 -0.31600564E+00 -0.28952607E+00 -0.26277709E+00 -0.23604242E+00 -0.20957494E+00
 -0.18359815E+00 -0.15830766E+00 -0.13387267E+00 -0.11043748E+00 -0.88122966E-01
 -0.67028098E-01 -0.47231402E-01 -0.28792437E-01 -0.11753231E-01  0.38603010E-02
  0.18036978E-01  0.30779002E-01  0.42100654E-01  0.52027031E-01  0.60592824E-01
  0.67841154E-01  0.73822447E-01  0.78593376E-01  0.82215842E-01  0.84756022E-01
  0.86283465E-01  0.86870250E-01  0.86590199E-01  0.85518144E-01  0.83729252E-01
  0.81298411E-01  0.78299659E-01  0.74805683E-01  0.70887350E-01  0.66613313E-01
  0.62049644E-01  0.57259534E-01  0.52303022E-01  0.47236785E-01  0.42113953E-01
  0.36983980E-01  0.31892540E-01  0.26881464E-01  0.21988710E-01  0.17248365E-01
  0.12690668E-01  0.83420714E-02  0.42253131E-02  0.35951982E-03 -0.32396757E-02
 -0.65599988E-02 -0.95923824E-02 -0.12330804E-01 -0.14772112E-01 -0.16915844E-01
 -0.18764035E-01 -0.20321029E-01 -0.21593275E-01 -0.22589131E-01 -0.23318667E-01
 -0.23793460E-01 -0.24026408E-01 -0.24031529E-01 -0.23823779E-01 -0.23418870E-01
 -0.22833093E-01 -0.22083154E-01 -0.21186011E-01 -0.20158729E-01 -0.19018332E-01
 -0.17781677E-01 -0.16465329E-01 -0.15085450E-01 -0.13657700E-01 -0.12197141E-01
 -0.10718161E-01 -0.92344000E-02 -0.77586928E-02 -0.63030153E-02 -0.48784455E-02
 -0.34951311E-02 -0.21622671E-02 -0.88808181E-03  0.32016918E-03  0.14562012E-02
  0.25146914E-02  0.34912630E-02  0.43824635E-02  0.51857368E-02  0.58993904E-02
  0.65225584E-02  0.70551596E-02  0.74978531E-02  0.78519897E-02  0.81195620E-02
  0.83031519E-02  0.84058767E-02  0.84313345E-02  0.83835485E-02  0.82669119E-02
  0.80861327E-02  0.78461789E-02  0.75522259E-02  0.72096036E-02  0.68237468E-02
  0.64001465E-02  0.59443038E-02  0.54616865E-02  0.49576875E-02  0.44375873E-02
  0.39065176E-02  0.33694299E-02  0.28310655E-02  0.22959298E-02  0.17682693E-02
  0.12520517E-02  0.75094900E-03  0.26832469E-03 -0.19277738E-03 -0.62964019E-03
 -0.10398783E-02 -0.14214395E-02 -0.17726045E-02 -0.20919832E-02 -0.23785092E-02
 -0.26314323E-02 -0.28503083E-02 -0.30349876E-02 -0.31856018E-02 -0.33025489E-02
 -0.33864772E-02 -0.34382680E-02 -0.34590178E-02 -0.34500186E-02 -0.34127393E-02
 -0.33488052E-02 -0.32599781E-02 -0.31481357E-02 -0.30152522E-02 -0.28633775E-02
 -0.26946182E-02 -0.25111183E-02 -0.23150408E-02 -0.21085497E-02 -0.18937935E-02
 -0.16728887E-02 -0.14479050E-02 -0.12208511E-02 -0.99366199E-03 -0.76818700E-03
 -0.54617935E-03 -0.32928671E-03 -0.11904310E-03  0.83138042E-04  0.27596953E-03
  0.45829489E-03  0.62909162E-03  0.78747331E-03  0.93269060E-03  0.10641310E-02
  0.11813180E-02  0.12839083E-02  0.13716895E-02  0.14445757E-02  0.15026028E-02
  0.15459230E-02  0.15747991E-02  0.15895972E-02  0.15907797E-02  0.15788978E-02
  0.15545835E-02  0.15185410E-02  0.14715387E-02  0.14144000E-02  0.13479950E-02
  0.12732319E-02  0.11910480E-02  0.11024015E-02  0.10082630E-02  0.90960755E-03
  0.80740698E-03  0.70262229E-03  0.59619667E-03  0.48904887E-03  0.38206707E-03
  0.27610310E-03  0.17196734E-03  0.70423972E-04 -0.27813091E-04 -0.12208382E-03
 -0.21178508E-03 -0.29637314E-03 -0.37536554E-03 -0.44834254E-03 -0.51494792E-03
 -0.57488932E-03 -0.62793809E-03 -0.67392861E-03 -0.71275719E-03 -0.74438054E-03
 -0.76881379E-03 -0.78612823E-03 -0.79644858E-03 -0.79995008E-03 -0.79685519E-03
 -0.78743016E-03 -0.77198129E-03 -0.75085111E-03 -0.72441434E-03 -0.69307384E-03
 -0.65725642E-03 -0.61740869E-03 -0.57399282E-03 -0.52748240E-03 -0.47835839E-03
 -0.42710506E-03 -0.37420617E-03 -0.32014116E-03 -0.26538167E-03 -0.21038807E-03
 -0.15560635E-03 -0.10146512E-03 -0.48372959E-04  0.32841358E-05  0.53144885E-04
  0.10087469E-03  0.14616732E-03  0.18874624E-03  0.22836580E-03  0.26481204E-03
  0.29790324E-03  0.32749025E-03  0.35345652E-03  0.37571790E-03  0.39422217E-03
  0.40894836E-03  0.41990588E-03  0.42713339E-03  0.43069755E-03  0.43069152E-03
  0.42723337E-03  0.42046435E-03  0.41054699E-03  0.39766315E-03  0.38201196E-03
  0.36380774E-03  0.34327777E-03  0.32066017E-03  0.29620165E-03  0.27015537E-03
  0.24277869E-03  0.21433112E-03  0.18507217E-03  0.15525940E-03  0.12514642E-03
  0.94981113E-04  0.65003862E-04  0.35445933E-04  0.65279745E-05 -0.21541352E-04
 -0.48566614E-04 -0.74366702E-04 -0.98775780E-04 -0.12164409E-03 -0.14283862E-03
 -0.16224359E-03 -0.17976083E-03 -0.19530996E-03 -0.20882853E-03 -0.22027187E-03
 -0.22961292E-03 -0.23684191E-03 -0.24196590E-03 -0.24500819E-03 -0.24600765E-03
 -0.24501796E-03 -0.24210673E-03 -0.23735456E-03 -0.23085401E-03 -0.22270855E-03
 -0.21303140E-03 -0.20194437E-03 -0.18957667E-03 -0.17606367E-03 -0.16154569E-03
 -0.14616675E-03 -0.13007335E-03 -0.11341326E-03 -0.96334343E-04 -0.78983397E-04
 -0.61505066E-04 -0.44040767E-04 -0.26727700E-04 -0.96979041E-05  0.69226160E-05
  0.23014688E-04  0.38466696E-04  0.53175232E-04  0.67045655E-04  0.79992573E-04
  0.91940240E-04  0.10282287E-03  0.11258485E-03  0.12118090E-03  0.12857611E-03
  0.13474594E-03  0.13967610E-03  0.14336237E-03  0.14581036E-03  0.14703518E-03
  0.14706108E-03  0.14592097E-03  0.14365597E-03  0.14031482E-03  0.13595331E-03
  0.13063368E-03  0.12442390E-03  0.11739704E-03  0.10963056E-03  0.10120553E-03
  0.92206007E-04  0.82718203E-04  0.72829822E-04  0.62629315E-04  0.52205186E-04
  0.41645297E-04  0.31036213E-04  0.20462563E-04  0.10006438E-04 -0.25317615E-06
 -0.10240926E-04 -0.19885579E-04 -0.29120461E-04 -0.37883855E-04 -0.46119347E-04
 -0.53776119E-04 -0.60809198E-04 -0.67179650E-04 -0.72854719E-04 -0.77807925E-04
 -0.82019098E-04 -0.85474376E-04 -0.88166143E-04 -0.90092927E-04 -0.91259255E-04
 -0.91675461E-04 -0.91357454E-04 -0.90326457E-04 -0.88608700E-04 -0.86235096E-04
 -0.83240874E-04 -0.79665204E-04 -0.75550789E-04 -0.70943448E-04 -0.65891678E-04
 -0.60446219E-04 -0.54659595E-04 -0.48585673E-04 -0.42279204E-04 -0.35795385E-04
 -0.29189414E-04 -0.22516068E-04 -0.15829288E-04 -0.91817837E-05 -0.26246543E-05
  0.37929644E-05  0.10024233E-04  0.16024912E-04  0.21753644E-04  0.27172196E-04
  0.32245688E-04  0.36942769E-04  0.41235785E-04  0.45100893E-04  0.48518159E-04
  0.51471615E-04  0.53949286E-04  0.55943188E-04  0.57449291E-04  0.58467457E-04
  0.59001346E-04  0.59058298E-04  0.58649189E-04  0.57788259E-04  0.56492925E-04
  0.54783571E-04  0.52683318E-04  0.50217780E-04  0.47414809E-04  0.44304229E-04
  0.40917552E-04  0.37287702E-04  0.33448723E-04  0.29435492E-04  0.25283427E-04
  0.21028205E-04  0.16705476E-04  0.12350589E-04  0.79983300E-05  0.36826586E-05
 -0.56352933E-06 -0.47086341E-05 -0.87225660E-05 -0.12576943E-04 -0.16245273E-04
 -0.19703111E-04 -0.22928206E-04 -0.25900621E-04 -0.28602834E-04 -0.31019820E-04
 -0.33139109E-04 -0.34950825E-04 -0.36447706E-04 -0.37625099E-04 -0.38480937E-04
 -0.39015699E-04 -0.39232347E-04 -0.39136249E-04 -0.38735085E-04 -0.38038733E-04
 -0.37059147E-04 -0.35810216E-04 -0.34307615E-04 -0.32568645E-04 -0.30612063E-04
 -0.28457904E-04 -0.26127299E-04 -0.23642287E-04 -0.21025627E-04 -0.18300603E-04
 -0.15490834E-04 -0.12620087E-04 -0.97120830E-05 -0.67903235E-05 -0.38779073E-05
 -0.99736285E-06  0.18295133E-05  0.45818099E-05  0.72396429E-05  0.97842875E-05
  0.12198298E-04  0.14465615E-04  0.16571660E-04  0.18503418E-04  0.20249500E-04
  0.21800203E-04  0.23147545E-04  0.24285292E-04  0.25208968E-04  0.25915853E-04
  0.26404967E-04  0.26677043E-04  0.26734482E-04  0.26581301E-04  0.26223070E-04
  0.25666833E-04  0.24921027E-04  0.23995383E-04  0.22900830E-04  0.21649379E-04
  0.20254012E-04  0.18728564E-04  0.17087590E-04  0.15346248E-04  0.13520160E-04
  0.11625291E-04  0.96778103E-05  0.76939676E-05  0.56899639E-05  0.36818278E-05
  0.16852948E-05 -0.28430801E-06 -0.22121722E-05 -0.40841121E-05 -0.58866616E-05
 -0.76071639E-05 -0.92338526E-05 -0.10755925E-04 -0.12163608E-04 -0.13448208E-04
 -0.14602162E-04 -0.15619072E-04 -0.16493728E-04 -0.17222128E-04 -0.17801486E-04
 -0.18230226E-04 -0.18507969E-04 -0.18635520E-04 -0.18614831E-04 -0.18448964E-04
 -0.18142050E-04 -0.17699233E-04 -0.17126609E-04 -0.16431163E-04 -0.15620698E-04
 -0.14703756E-04 -0.13689539E-04 -0.12587826E-04 -0.11408886E-04 -0.10163386E-04
 -0.88623071E-05 -0.75168470E-05 -0.61383340E-05 -0.47381346E-05 -0.33275658E-05
 -0.19178086E-05 -0.51982389E-06  0.85572784E-06  0.21985631E-05  0.34988476E-05
  0.47472639E-05  0.59350733E-05  0.70541728E-05  0.80971450E-05  0.90573031E-05
  0.99287284E-05  0.10706302E-04  0.11385727E-04  0.11963552E-04  0.12437174E-04
  0.12804850E-04  0.13065689E-04  0.13219645E-04  0.13267502E-04  0.13210855E-04
  0.13052074E-04  0.12794283E-04  0.12441311E-04  0.11997659E-04  0.11468443E-04
  0.10859353E-04  0.10176592E-04  0.94268189E-05  0.86170922E-05  0.77548055E-05
  0.68476248E-05  0.59034244E-05  0.49302224E-05  0.39361159E-05  0.29292172E-05
  0.19175906E-05  0.90919136E-06 -0.88194152E-07 -0.10670054E-05 -0.20199619E-05
 -0.29401148E-05 -0.38208940E-05 -0.46561527E-05 -0.54402070E-05 -0.61678713E-05
 -0.68344899E-05 -0.74359633E-05 -0.79687698E-05 -0.84299827E-05 -0.88172821E-05
 -0.91289621E-05 -0.93639333E-05 -0.95217198E-05 -0.96024527E-05 -0.96068578E-05
 -0.95362399E-05 -0.93924623E-05 -0.91779226E-05 -0.88955249E-05 -0.85486486E-05
 -0.81411137E-05 -0.76771436E-05 -0.71613260E-05 -0.65985702E-05 -0.59940643E-05
 -0.53532301E-05 -0.46816770E-05 -0.39851555E-05 -0.32695104E-05 -0.25406340E-05
 -0.18044197E-05 -0.10667166E-05 -0.33328481E-06  0.39024718E-06  0.10984240E-05
  0.17860025E-05  0.24479885E-05  0.30796713E-05  0.36766552E-05  0.42348879E-05
  0.47506863E-05  0.52207584E-05  0.56422223E-05  0.60126213E-05  0.63299360E-05
  0.65925921E-05  0.67994656E-05  0.69498835E-05  0.70436214E-05  0.70808979E-05
  0.70623655E-05  0.69890983E-05  0.68625763E-05  0.66846677E-05  0.64576076E-05
  0.61839751E-05  0.58666669E-05  0.55088706E-05  0.51140344E-05  0.46858367E-05
  0.42281536E-05  0.37450259E-05  0.32406250E-05  0.27192185E-05  0.21851360E-05
  0.16427340E-05  0.10963625E-05  0.55033099E-06  0.88761938E-08 -0.52386980E-06
 -0.10439095E-05 -0.15474090E-05 -0.20307244E-05 -0.24904275E-05 -0.29233285E-05
 -0.33264965E-05 -0.36972786E-05 -0.40333152E-05 -0.43325541E-05 -0.45932609E-05
 -0.48140278E-05 -0.49937789E-05 -0.51317729E-05 -0.52276043E-05 -0.52812004E-05
 -0.52928169E-05 -0.52630305E-05 -0.51927296E-05 -0.50831023E-05 -0.49356224E-05
 -0.47520335E-05 -0.45343314E-05 -0.42847448E-05 -0.40057137E-05 -0.36998683E-05
 -0.33700048E-05 -0.30190614E-05 -0.26500937E-05 -0.22662489E-05 -0.18707402E-05
 -0.14668209E-05 -0.10577587E-05 -0.64681000E-06 -0.23719533E-06  0.16792531E-06
  0.56547576E-06  0.95248624E-06  0.13261146E-05  0.16836662E-05  0.20226128E-05
  0.23406091E-05  0.26355080E-05  0.29053748E-05  0.31484979E-05  0.33633996E-05
  0.35488430E-05  0.37038385E-05  0.38276474E-05  0.39197839E-05  0.39800146E-05
  0.40083570E-05  0.40050754E-05  0.39706747E-05  0.39058933E-05  0.38116936E-05
  0.36892514E-05  0.35399433E-05  0.33653332E-05  0.31671575E-05  0.29473087E-05
  0.27078188E-05  0.24508414E-05  0.21786332E-05  0.18935349E-05  0.15979522E-05
  0.12943359E-05  0.98516240E-06  0.67291427E-06  0.36006090E-06  0.49039629E-07
 -0.25776259E-06 -0.55802688E-06 -0.84951938E-06 -0.11301072E-05 -0.13977734E-05
 -0.16506309E-05 -0.18869351E-05 -0.21050953E-05 -0.23036847E-05 -0.24814490E-05
 -0.26373134E-05 -0.27703886E-05 -0.28799749E-05 -0.29655643E-05 -0.30268425E-05
 -0.30636877E-05 -0.30761693E-05 -0.30645440E-05 -0.30292517E-05 -0.29709092E-05
 -0.28903026E-05 -0.27883793E-05 -0.26662378E-05 -0.25251174E-05 -0.23663865E-05
 -0.21915300E-05 -0.20021365E-05 -0.17998841E-05 -0.15865266E-05 -0.13638783E-05
 -0.11337999E-05 -0.89818264E-06 -0.65893380E-06 -0.41796152E-06 -0.17716008E-06
  0.61604518E-07  0.29650857E-06  0.52578418E-06  0.74773209E-06  0.96073386E-06
  0.11632632E-05  0.13538966E-05  0.15313224E-05  0.16943502E-05  0.18419174E-05
  0.19730963E-05  0.20870990E-05  0.21832816E-05  0.22611474E-05  0.23203482E-05
  0.23606855E-05  0.23821091E-05  0.23847165E-05  0.23687492E-05  0.23345891E-05
  0.22827539E-05  0.22138906E-05  0.21287694E-05  0.20282754E-05  0.19134006E-05
  0.17852347E-05  0.16449550E-05  0.14938167E-05  0.13331414E-05  0.11643066E-05
  0.98873391E-06  0.80787763E-06  0.62321301E-06  0.43622457E-06  0.24839453E-06
  0.61191340E-07 -0.12394143E-06 -0.30559593E-06 -0.48241040E-06 -0.65307909E-06
 -0.81636156E-06 -0.97109139E-06 -0.11161842E-05 -0.12506448E-05 -0.13735739E-05
 -0.14841736E-05 -0.15817522E-05 -0.16657281E-05 -0.17356327E-05 -0.17911130E-05
 -0.18319320E-05 -0.18579697E-05 -0.18692218E-05 -0.18657989E-05 -0.18479234E-05
 -0.18159267E-05 -0.17702452E-05 -0.17114152E-05 -0.16400679E-05 -0.15569228E-05
 -0.14627812E-05 -0.13585190E-05 -0.12450786E-05 -0.11234613E-05 -0.99471815E-06
 -0.85994160E-06 -0.72025639E-06 -0.57681038E-06 -0.43076548E-06 -0.28328838E-06
 -0.13554156E-06  0.11325681E-07  0.15618593E-06  0.29794206E-06  0.43553534E-06
  0.56795309E-06  0.69423591E-06  0.81348441E-06  0.92486536E-06  0.10276173E-05
  0.11210553E-05  0.12045757E-05  0.12776591E-05  0.13398740E-05  0.13908783E-05
  0.14304212E-05  0.14583438E-05  0.14745794E-05  0.14791523E-05  0.14721771E-05
  0.14538560E-05  0.14244766E-05  0.13844084E-05  0.13340989E-05  0.12740690E-05
  0.12049083E-05  0.11272696E-05  0.10418629E-05  0.94944919E-06  0.85083420E-06
  0.74686128E-06  0.63840456E-06  0.52636178E-06  0.41164706E-06  0.29518361E-06
  0.17789650E-06  0.60705476E-07 -0.55482064E-07 -0.16977794E-06 -0.28131981E-06
 -0.38927749E-06 -0.49285898E-06 -0.59131612E-06 -0.68394976E-06 -0.77011462E-06
 -0.84922355E-06 -0.92075137E-06 -0.98423812E-06 -0.10392918E-05 -0.10855907E-05
 -0.11228846E-05 -0.11509964E-05 -0.11698221E-05 -0.11793309E-05 -0.11795644E-05
 -0.11706357E-05 -0.11527272E-05 -0.11260886E-05 -0.10910340E-05 -0.10479391E-05
 -0.99723678E-06 -0.93941369E-06 -0.87500556E-06 -0.80459249E-06 -0.72879397E-06
 -0.64826352E-06 -0.56368332E-06 -0.47575852E-06 -0.38521155E-06 -0.29277629E-06
 -0.19919230E-06 -0.10519900E-06 -0.11529986E-07  0.81092586E-07  0.17196343E-06
  0.26039939E-06  0.34574443E-06  0.42737439E-06  0.50470140E-06  0.57717803E-06
  0.64430097E-06  0.70561443E-06  0.76071310E-06  0.80924460E-06  0.85091164E-06
  0.88547365E-06  0.91274790E-06  0.93261028E-06  0.94499550E-06  0.94989696E-06
 atomic pseudo charge-density
  0.15000000E+02  0.14983953E+02  0.14936005E+02  0.14856731E+02  0.14747072E+02
  0.14608300E+02  0.14441990E+02  0.14249965E+02  0.14034253E+02  0.13797035E+02
  0.13540588E+02  0.13267240E+02  0.12979322E+02  0.12679125E+02  0.12368865E+02
  0.12050658E+02  0.11726490E+02  0.11398206E+02  0.11067500E+02  0.10735905E+02
  0.10404795E+02  0.10075390E+02  0.97487564E+01  0.94258184E+01  0.91073669E+01
  0.87940689E+01  0.84864790E+01  0.81850502E+01  0.78901444E+01  0.76020430E+01
  0.73209564E+01  0.70470331E+01  0.67803680E+01  0.65210101E+01  0.62689689E+01
  0.60242211E+01  0.57867153E+01  0.55563774E+01  0.53331140E+01  0.51168168E+01
  0.49073653E+01  0.47046292E+01  0.45084716E+01  0.43187498E+01  0.41353181E+01
  0.39580282E+01  0.37867311E+01  0.36212775E+01  0.34615189E+01  0.33073080E+01
  0.31584996E+01  0.30149503E+01  0.28765193E+01  0.27430685E+01  0.26144626E+01
  0.24905689E+01  0.23712580E+01  0.22564031E+01  0.21458803E+01  0.20395686E+01
  0.19373496E+01  0.18391078E+01  0.17447300E+01  0.16541058E+01  0.15671269E+01
  0.14836874E+01  0.14036838E+01  0.13270146E+01  0.12535804E+01  0.11832839E+01
  0.11160295E+01  0.10517236E+01  0.99027467E+00  0.93159258E+00  0.87558916E+00
  0.82217787E+00  0.77127388E+00  0.72279397E+00  0.67665657E+00  0.63278169E+00
  0.59109094E+00  0.55150750E+00  0.51395611E+00  0.47836307E+00  0.44465622E+00
  0.41276494E+00  0.38262013E+00  0.35415426E+00  0.32730128E+00  0.30199669E+00
  0.27817750E+00  0.25578222E+00  0.23475091E+00  0.21502508E+00  0.19654778E+00
  0.17926354E+00  0.16311838E+00  0.14805979E+00  0.13403673E+00  0.12099965E+00
  0.10890041E+00  0.97692339E-01  0.87330190E-01  0.77770127E-01  0.68969718E-01
  0.60887920E-01  0.53485062E-01  0.46722830E-01  0.40564249E-01  0.34973665E-01
  0.29916728E-01  0.25360369E-01  0.21272788E-01  0.17623424E-01  0.14382940E-01
  0.11523199E-01  0.90172444E-02  0.68392739E-02  0.49646189E-02  0.33697204E-02
  0.20321054E-02  0.93036296E-03  0.44119736E-04 -0.64598443E-03 -0.11583212E-02
 -0.15102987E-02 -0.17183864E-02 -0.17981404E-02 -0.17642284E-02 -0.16304552E-02
 -0.14097876E-02 -0.11143801E-02 -0.75559972E-03 -0.34405138E-03  0.11039701E-03
  0.59858961E-03  0.11120577E-02  0.16429950E-02  0.21842329E-02  0.27292162E-02
  0.32719786E-02  0.38071190E-02  0.43297774E-02  0.48356112E-02  0.53207722E-02
  0.57818829E-02  0.62160143E-02  0.66206631E-02  0.69937294E-02  0.73334946E-02
  0.76386004E-02  0.79080269E-02  0.81410723E-02  0.83373318E-02  0.84966781E-02
  0.86192412E-02  0.87053893E-02  0.87557100E-02  0.87709918E-02  0.87522062E-02
  0.87004900E-02  0.86171286E-02  0.85035392E-02  0.83612551E-02  0.81919100E-02
  0.79972232E-02  0.77789850E-02  0.75390432E-02  0.72792895E-02  0.70016470E-02
  0.67080580E-02  0.64004727E-02  0.60808378E-02  0.57510867E-02  0.54131296E-02
  0.50688444E-02  0.47200680E-02  0.43685890E-02  0.40161398E-02  0.36643906E-02
  0.33149427E-02  0.29693238E-02  0.26289826E-02  0.22952850E-02  0.19695102E-02
  0.16528478E-02  0.13463951E-02  0.10511556E-02  0.76803707E-03  0.49785106E-03
  0.24131236E-03 -0.96081679E-06 -0.22844628E-03 -0.44071678E-03 -0.63743858E-03
 -0.81836957E-03 -0.98335696E-03 -0.11323347E-02 -0.12653206E-02 -0.13824130E-02
 -0.14837870E-02 -0.15696911E-02 -0.16404429E-02 -0.16964248E-02 -0.17380797E-02
 -0.17659066E-02 -0.17804555E-02 -0.17823230E-02 -0.17721471E-02 -0.17506027E-02
 -0.17183964E-02 -0.16762617E-02 -0.16249539E-02 -0.15652458E-02 -0.14979222E-02
 -0.14237761E-02 -0.13436035E-02 -0.12581992E-02 -0.11683528E-02 -0.10748442E-02
 -0.97844034E-03 -0.87989084E-03 -0.77992501E-03 -0.67924850E-03 -0.57854027E-03
 -0.47844990E-03 -0.37959507E-03 -0.28255934E-03 -0.18789020E-03 -0.96097309E-04
 -0.76511176E-05  0.77018338E-04  0.15752234E-03  0.23351413E-03  0.30468932E-03
  0.37078602E-03  0.43158472E-03  0.48690801E-03  0.53661995E-03  0.58062534E-03
  0.61886870E-03  0.65133313E-03  0.67803891E-03  0.69904199E-03  0.71443233E-03
  0.72433203E-03  0.72889343E-03  0.72829702E-03  0.72274932E-03  0.71248062E-03
  0.69774269E-03  0.67880645E-03  0.65595957E-03  0.62950408E-03  0.59975398E-03
  0.56703283E-03  0.53167139E-03  0.49400526E-03  0.45437265E-03  0.41311210E-03
  0.37056036E-03  0.32705034E-03  0.28290907E-03  0.23845593E-03  0.19400077E-03
  0.14984239E-03  0.10626690E-03  0.63546418E-04  0.21937772E-04 -0.18318618E-04
 -0.56999717E-04 -0.93900715E-04 -0.12883573E-03 -0.16163834E-03 -0.19216205E-03
 -0.22028051E-03 -0.24588768E-03 -0.26889784E-03 -0.28924544E-03 -0.30688490E-03
 -0.32179017E-03 -0.33395432E-03 -0.34338891E-03 -0.35012330E-03 -0.35420390E-03
 -0.35569327E-03 -0.35466920E-03 -0.35122369E-03 -0.34546189E-03 -0.33750096E-03
 -0.32746893E-03 -0.31550349E-03 -0.30175075E-03 -0.28636405E-03 -0.26950265E-03
 -0.25133055E-03 -0.23201519E-03 -0.21172628E-03 -0.19063455E-03 -0.16891062E-03
 -0.14672388E-03 -0.12424134E-03 -0.10162667E-03 -0.79039152E-04 -0.56632785E-04
 -0.34555423E-04 -0.12947972E-04  0.80563271E-05  0.28332557E-04  0.47764694E-04
  0.66246111E-04  0.83679997E-04  0.99979705E-04  0.11506901E-03  0.12888232E-03
  0.14136474E-03  0.15247217E-03  0.16217124E-03  0.17043917E-03  0.17726368E-03
  0.18264266E-03  0.18658395E-03  0.18910491E-03  0.19023209E-03  0.19000070E-03
  0.18845414E-03  0.18564347E-03  0.18162680E-03  0.17646871E-03  0.17023960E-03
  0.16301505E-03  0.15487514E-03  0.14590379E-03  0.13618804E-03  0.12581741E-03
  0.11488320E-03  0.10347778E-03  0.91694014E-04  0.79624529E-04  0.67361149E-04
  0.54994271E-04  0.42612303E-04  0.30301116E-04  0.18143542E-04  0.62188947E-05
 -0.53974586E-05 -0.16634498E-04 -0.27425903E-04 -0.37710364E-04 -0.47431855E-04
 -0.56539855E-04 -0.64989532E-04 -0.72741880E-04 -0.79763814E-04 -0.86028221E-04
 -0.91513971E-04 -0.96205882E-04 -0.10009466E-03 -0.10317676E-03 -0.10545429E-03
 -0.10693481E-03 -0.10763108E-03 -0.10756090E-03 -0.10674680E-03 -0.10521571E-03
 -0.10299875E-03 -0.10013080E-03 -0.96650201E-04 -0.92598387E-04 -0.88019509E-04
 -0.82960060E-04 -0.77468492E-04 -0.71594823E-04 -0.65390260E-04 -0.58906810E-04
 -0.52196910E-04 -0.45313050E-04 -0.38307421E-04 -0.31231565E-04 -0.24136045E-04
 -0.17070129E-04 -0.10081489E-04 -0.32159301E-05  0.34828770E-05  0.99736254E-05
  0.16217588E-04  0.22178805E-04  0.27824255E-04  0.33123988E-04  0.38051250E-04
  0.42582566E-04  0.46697814E-04  0.50380263E-04  0.53616591E-04  0.56396881E-04
  0.58714592E-04  0.60566507E-04  0.61952665E-04  0.62876266E-04  0.63343564E-04
  0.63363737E-04  0.62948746E-04  0.62113174E-04  0.60874058E-04  0.59250702E-04
  0.57264488E-04  0.54938669E-04  0.52298168E-04  0.49369356E-04  0.46179839E-04
  0.42758240E-04  0.39133971E-04  0.35337023E-04  0.31397740E-04  0.27346614E-04
  0.23214067E-04  0.19030256E-04  0.14824875E-04  0.10626971E-04  0.64647609E-05
  0.23654733E-05 -0.16448125E-05 -0.55413078E-05 -0.93006456E-05 -0.12900998E-04
 -0.16322180E-04 -0.19545743E-04 -0.22555045E-04 -0.25335319E-04 -0.27873719E-04
 -0.30159354E-04 -0.32183306E-04 -0.33938641E-04 -0.35420401E-04 -0.36625580E-04
 -0.37553099E-04 -0.38203759E-04 -0.38580184E-04 -0.38686759E-04 -0.38529554E-04
 -0.38116237E-04 -0.37455985E-04 -0.36559382E-04 -0.35438313E-04 -0.34105850E-04
 -0.32576140E-04 -0.30864277E-04 -0.28986183E-04 -0.26958483E-04 -0.24798372E-04
 -0.22523492E-04 -0.20151804E-04 -0.17701461E-04 -0.15190685E-04 -0.12637646E-04
 -0.10060343E-04 -0.74764913E-05 -0.49034158E-05 -0.23579446E-05  0.14368654E-06
  0.25859260E-05  0.49539902E-05  0.72339411E-05  0.94127561E-05  0.11478390E-04
  0.13419828E-04  0.15227134E-04  0.16891489E-04  0.18405219E-04  0.19761816E-04
  0.20955956E-04  0.21983503E-04  0.22841504E-04  0.23528186E-04  0.24042932E-04
  0.24386265E-04  0.24559811E-04  0.24566267E-04  0.24409355E-04  0.24093778E-04
  0.23625161E-04  0.23009999E-04  0.22255594E-04  0.21369985E-04  0.20361885E-04
  0.19240606E-04  0.18015988E-04  0.16698323E-04  0.15298276E-04  0.13826813E-04
  0.12295123E-04  0.10714536E-04  0.90964566E-05  0.74522809E-05  0.57933291E-05
  0.41307726E-05  0.24755667E-05  0.83838509E-06 -0.77044215E-06 -0.23409870E-05
 -0.38637782E-05 -0.53298518E-05 -0.67307978E-05 -0.80588015E-05 -0.93066813E-05
 -0.10467921E-04 -0.11536697E-04 -0.12507901E-04 -0.13377160E-04 -0.14140845E-04
 -0.14796082E-04 -0.15340755E-04 -0.15773501E-04 -0.16093707E-04 -0.16301498E-04
 -0.16397721E-04 -0.16383924E-04 -0.16262336E-04 -0.16035836E-04 -0.15707924E-04
 -0.15282687E-04 -0.14764758E-04 -0.14159282E-04 -0.13471870E-04 -0.12708554E-04
 -0.11875743E-04 -0.10980172E-04 -0.10028857E-04 -0.90290434E-05 -0.79881541E-05
 -0.69137413E-05 -0.58134351E-05 -0.46948938E-05 -0.35657543E-05 -0.24335844E-05
 -0.13058352E-05 -0.18979623E-06  0.90744842E-06  0.19790616E-05  0.30184923E-05
  0.40195127E-05  0.49762520E-05  0.58832279E-05  0.67353753E-05  0.75280710E-05
  0.82571561E-05  0.89189548E-05  0.95102897E-05  0.10028494E-04  0.10471419E-04
  0.10837443E-04  0.11125467E-04  0.11334919E-04  0.11465746E-04  0.11518407E-04
  0.11493859E-04  0.11393550E-04  0.11219394E-04  0.10973754E-04  0.10659423E-04
  0.10279595E-04  0.98378379E-05  0.93380698E-05  0.87845225E-05  0.81817126E-05
  0.75344069E-05  0.68475877E-05  0.61264179E-05  0.53762040E-05  0.46023601E-05
  0.38103713E-05  0.30057563E-05  0.21940320E-05  0.13806769E-05  0.57109646E-06
 -0.22941094E-06 -0.10156872E-05 -0.17827459E-05 -0.25258023E-05 -0.32403016E-05
 -0.39219455E-05 -0.45667165E-05 -0.51708999E-05 -0.57311042E-05 -0.62442783E-05
 -0.67077267E-05 -0.71191224E-05 -0.74765165E-05 -0.77783460E-05 -0.80234385E-05
 -0.82110144E-05 -0.83406863E-05 -0.84124565E-05 -0.84267113E-05 -0.83842128E-05
 -0.82860893E-05 -0.81338220E-05 -0.79292310E-05 -0.76744581E-05 -0.73719482E-05
 -0.70244294E-05 -0.66348904E-05 -0.62065573E-05 -0.57428693E-05 -0.52474522E-05
 -0.47240926E-05 -0.41767097E-05 -0.36093280E-05 -0.30260487E-05 -0.24310214E-05
 -0.18284160E-05 -0.12223941E-05 -0.61708195E-06 -0.16542736E-07  0.57524936E-06
  0.11544347E-05  0.17172923E-05  0.22602633E-05  0.27799722E-05  0.32732472E-05
  0.37371389E-05  0.41689367E-05  0.45661842E-05  0.49266923E-05  0.52485499E-05
  0.55301335E-05  0.57701139E-05  0.59674616E-05  0.61214493E-05  0.62316528E-05
  0.62979500E-05  0.63205176E-05  0.62998257E-05  0.62366308E-05  0.61319667E-05
  0.59871340E-05  0.58036874E-05  0.55834219E-05  0.53283575E-05  0.50407220E-05
  0.47229337E-05  0.43775817E-05  0.40074068E-05  0.36152801E-05  0.32041821E-05
  0.27771807E-05  0.23374095E-05  0.18880451E-05  0.14322855E-05  0.97332713E-06
  0.51434403E-06  0.58465896E-07 -0.39124246E-06 -0.83180115E-06 -0.12603344E-05
 -0.16740888E-05 -0.20704502E-05 -0.24469602E-05 -0.28013302E-05 -0.31314551E-05
 -0.34354250E-05 -0.37115357E-05 -0.39582974E-05 -0.41744420E-05 -0.43589287E-05
 -0.45109479E-05 -0.46299238E-05 -0.47155148E-05 -0.47676127E-05 -0.47863401E-05
 -0.47720466E-05 -0.47253027E-05 -0.46468936E-05 -0.45378100E-05 -0.43992387E-05
 -0.42325519E-05 -0.40392950E-05 -0.38211735E-05 -0.35800389E-05 -0.33178743E-05
 -0.30367785E-05 -0.27389503E-05 -0.24266716E-05 -0.21022907E-05 -0.17682054E-05
 -0.14268453E-05 -0.10806553E-05 -0.73207794E-06 -0.38353705E-06 -0.37421137E-07
  0.30393243E-06  0.63825282E-06  0.96335040E-06  0.12771306E-05  0.15776069E-05
  0.18629131E-05  0.21313143E-05  0.23812168E-05  0.26111772E-05  0.28199101E-05
  0.30062947E-05  0.31693798E-05  0.33083882E-05  0.34227192E-05  0.35119506E-05
  0.35758384E-05  0.36143161E-05  0.36274927E-05  0.36156490E-05  0.35792336E-05
  0.35188567E-05  0.34352841E-05  0.33294292E-05  0.32023447E-05  0.30552133E-05
  0.28893375E-05  0.27061290E-05  0.25070972E-05  0.22938377E-05  0.20680194E-05
  0.18313727E-05  0.15856760E-05  0.13327435E-05  0.10744114E-05  0.81252546E-06
  0.54892824E-06  0.28544624E-06  0.23877755E-07 -0.23401902E-06 -0.48653747E-06
 -0.73203342E-06 -0.96893547E-06 -0.11957547E-05 -0.14110934E-05 -0.16136535E-05
 -0.18022438E-05 -0.19757865E-05 -0.21333227E-05 -0.22740172E-05 -0.23971624E-05
 -0.25021812E-05 -0.25886287E-05 -0.26561932E-05 -0.27046964E-05 -0.27340928E-05
 -0.27444673E-05 -0.27360331E-05 -0.27091282E-05 -0.26642109E-05 -0.26018553E-05
 -0.25227448E-05 -0.24276665E-05 -0.23175041E-05 -0.21932298E-05 -0.20558972E-05
 -0.19066320E-05 -0.17466239E-05 -0.15771173E-05 -0.13994018E-05 -0.12148030E-05
 -0.10246730E-05 -0.83038046E-06 -0.63330151E-06 -0.43481009E-06 -0.23626870E-06
 -0.39019434E-07  0.15562481E-06  0.34638872E-06  0.53204260E-06  0.71140994E-06
  0.88337452E-06  0.10468870E-05  0.12009709E-05  0.13447280E-05  0.14773433E-05
  0.15980892E-05  0.17063287E-05  0.18015185E-05  0.18832115E-05  0.19510575E-05
  0.20048048E-05  0.20443000E-05  0.20694874E-05  0.20804082E-05  0.20771983E-05
  0.20600862E-05  0.20293899E-05  0.19855136E-05  0.19289432E-05  0.18602424E-05
  0.17800471E-05  0.16890607E-05  0.15880477E-05  0.14778284E-05  0.13592718E-05
  0.12332897E-05  0.11008298E-05  0.96286865E-06  0.82040504E-06  0.67445285E-06
  0.52603415E-06  0.37617231E-06  0.22588524E-06  0.76178717E-07 -0.71960092E-07
 -0.21756883E-06 -0.35971594E-06 -0.49750636E-06 -0.63008682E-06 -0.75665091E-06
 -0.87644362E-06 -0.98876556E-06 -0.10929767E-05 -0.11884999E-05 -0.12748232E-05
 -0.13515031E-05 -0.14181655E-05 -0.14745079E-05 -0.15202999E-05 -0.15553838E-05
 -0.15796744E-05 -0.15931589E-05 -0.15958955E-05 -0.15880123E-05 -0.15697051E-05
 -0.15412356E-05 -0.15029285E-05 -0.14551685E-05 -0.13983969E-05 -0.13331080E-05
 -0.12598452E-05 -0.11791967E-05 -0.10917908E-05 -0.99829194E-06 -0.89939509E-06
 -0.79582132E-06 -0.68831263E-06 -0.57762679E-06 -0.46453232E-06 -0.34980328E-06
 -0.23421420E-06 -0.11853510E-06 -0.35265169E-08  0.11006526E-06  0.22151283E-06
  0.33011216E-06  0.43518677E-06  0.53609182E-06  0.63221779E-06  0.72299399E-06
  0.80789177E-06  0.88642734E-06  0.95816435E-06  0.10227161E-05  0.10797474E-05
  0.11289761E-05  0.11701742E-05  0.12031688E-05  0.12278422E-05  0.12441324E-05
  0.12520326E-05  0.12515905E-05  0.12429074E-05  0.12261371E-05  0.12014841E-05
  0.11692015E-05  0.11295892E-05  0.10829911E-05  0.10297926E-05  0.97041759E-06
  0.90532503E-06  0.83500594E-06  0.75997969E-06  0.68079037E-06  0.59800303E-06
  0.51219980E-06  0.42397593E-06  0.33393585E-06  0.24268915E-06  0.15084660E-06
  0.59016231E-07 -0.32200596E-07 -0.12221296E-06 -0.21044410E-06 -0.29633497E-06
 -0.37934765E-06 -0.45896863E-06 -0.53471184E-06 -0.60612150E-06 -0.67277480E-06
 -0.73428423E-06 -0.79029978E-06 -0.84051079E-06 -0.88464760E-06 -0.92248285E-06
 -0.95383258E-06 -0.97855695E-06 -0.99656075E-06 -0.10077936E-05 -0.10122497E-05
 -0.10099678E-05 -0.10010300E-05 -0.98556138E-06 -0.96372831E-06 -0.93573726E-06
 -0.90183300E-06 -0.86229668E-06 -0.81744364E-06 -0.76762108E-06 -0.71320549E-06
 -0.65459996E-06 -0.59223128E-06 -0.52654698E-06 -0.45801223E-06 -0.38710661E-06
 -0.31432089E-06 -0.24015374E-06 -0.16510836E-06 -0.89689168E-07 -0.14398503E-07
  0.60266657E-07  0.13381790E-06  0.20577852E-06  0.27568653E-06  0.34309755E-06
  0.40758765E-06  0.46875586E-06  0.52622671E-06  0.57965243E-06  0.62871502E-06
  0.67312811E-06  0.71263860E-06  0.74702801E-06  0.77611369E-06  0.79974971E-06
  0.81782753E-06  0.83027641E-06  0.83706358E-06  0.83819416E-06  0.83371080E-06
  0.82369311E-06  0.80825685E-06  0.78755286E-06  0.76176576E-06  0.73111250E-06
  0.69584063E-06  0.65622644E-06  0.61257284E-06  0.56520719E-06  0.51447893E-06
  0.46075700E-06  0.40442733E-06  0.34589005E-06  0.28555674E-06  0.22384760E-06
  0.16118855E-06  0.98008352E-07  0.34735696E-07 -0.28203641E-07 -0.90389645E-07
 -0.15141083E-06 -0.21086694E-06 -0.26837154E-06 -0.32355450E-06 -0.37606437E-06
 -0.42557058E-06 -0.47176553E-06 -0.51436643E-06 -0.55311708E-06 -0.58778931E-06
 -0.61818438E-06 -0.64413401E-06 -0.66550135E-06 -0.68218160E-06 -0.69410251E-06
 -0.70122459E-06 -0.70354109E-06 -0.70107787E-06 -0.69389288E-06 -0.68207556E-06
 -0.66574598E-06 -0.64505376E-06 -0.62017687E-06 -0.59132014E-06 -0.55871367E-06
 -0.52261111E-06 -0.48328768E-06 -0.44103818E-06 -0.39617479E-06 -0.34902483E-06
 -0.29992842E-06 -0.24923600E-06 -0.19730594E-06 -0.14450198E-06 -0.91190733E-07
 -0.37739128E-07  0.15488058E-07  0.68130692E-07  0.11983570E-06  0.17025943E-06
   15.1178079086314      T
 Non local Part
           2           2   1.35013596287815     
   56.6815803700929       -42.7036110829323       -42.7036110829323     
   28.0431130659748     
 Reciprocal Space Part
  0.00000000E+00  0.81546244E-02  0.32561895E-01  0.73052254E-01  0.12934395E+00
  0.20104428E+00  0.28765144E+00  0.38855680E+00  0.50304788E+00  0.63031179E+00
  0.76943945E+00  0.91943026E+00  0.10791977E+01  0.12475752E+01  0.14233235E+01
  0.16051377E+01  0.17916559E+01  0.19814679E+01  0.21731254E+01  0.23651519E+01
  0.25560538E+01  0.27443320E+01  0.29284937E+01  0.31070651E+01  0.32786035E+01
  0.34417103E+01  0.35950440E+01  0.37373326E+01  0.38673857E+01  0.39841072E+01
  0.40865059E+01  0.41737063E+01  0.42449584E+01  0.42996461E+01  0.43372947E+01
  0.43575765E+01  0.43603156E+01  0.43454907E+01  0.43132361E+01  0.42638414E+01
  0.41977488E+01  0.41155490E+01  0.40179754E+01  0.39058962E+01  0.37803046E+01
  0.36423087E+01  0.34931180E+01  0.33340303E+01  0.31664163E+01  0.29917041E+01
  0.28113625E+01  0.26268838E+01  0.24397667E+01  0.22514988E+01  0.20635398E+01
  0.18773045E+01  0.16941478E+01  0.15153491E+01  0.13420993E+01  0.11754883E+01
  0.10164947E+01  0.86597656E+00  0.72466489E+00  0.59315823E+00  0.47191976E+00
  0.36127620E+00  0.26141878E+00  0.17240617E+00  0.94169217E-01  0.26517502E-01
 -0.30852563E-01 -0.78348157E-01 -0.11646926E+00 -0.14579681E+00 -0.16698012E+00
 -0.18072367E+00 -0.18777361E+00 -0.18890422E+00 -0.18490450E+00 -0.17656516E+00
 -0.16466626E+00 -0.14996562E+00 -0.13318823E+00 -0.11501685E+00 -0.96083778E-01
 -0.76964109E-01 -0.58170311E-01 -0.40148338E-01 -0.23275184E-01 -0.78578939E-02
  0.58660392E-02  0.17726962E-01  0.27620144E-01  0.35501772E-01  0.41384017E-01
  0.45329296E-01  0.47443940E-01  0.47871393E-01  0.46785148E-01  0.44381575E-01
 Real Space Part
  0.00000000E+00  0.19534589E-01  0.77990066E-01  0.17492267E+00  0.30959644E+00
  0.48098869E+00  0.68779759E+00  0.92845181E+00  0.12011222E+01  0.15037354E+01
  0.18339892E+01  0.21893699E+01  0.25671707E+01  0.29645124E+01  0.33783646E+01
  0.38055686E+01  0.42428612E+01  0.46868991E+01  0.51342846E+01  0.55815909E+01
  0.60253886E+01  0.64622717E+01  0.68888836E+01  0.73019434E+01  0.76982709E+01
  0.80748114E+01  0.84286599E+01  0.87570836E+01  0.90575439E+01  0.93277165E+01
  0.95655102E+01  0.97690840E+01  0.99368621E+01  0.10067547E+02  0.10160132E+02
  0.10213907E+02  0.10228468E+02  0.10203718E+02  0.10139874E+02  0.10037459E+02
  0.98973033E+01  0.97205354E+01  0.95085750E+01  0.92631207E+01  0.89861354E+01
  0.86798300E+01  0.83466441E+01  0.79892245E+01  0.76104012E+01  0.72131615E+01
  0.68006222E+01  0.63760003E+01  0.59425810E+01  0.55036867E+01  0.50626422E+01
  0.46227421E+01  0.41872159E+01  0.37591937E+01  0.33416731E+01  0.29374861E+01
  0.25492678E+01  0.21794267E+01  0.18301178E+01  0.15032174E+01  0.12003024E+01
  0.92263228E+00  0.67113570E+00  0.44640126E+00  0.24867323E+00  0.77852274E-01
 -0.66498654E-01 -0.18514312E+00 -0.27915448E+00 -0.34989394E+00 -0.39898395E+00
 -0.42827689E+00 -0.43981881E+00 -0.43581015E+00 -0.41856364E+00 -0.39045859E+00
 -0.35389505E+00 -0.31124615E+00 -0.26481102E+00 -0.21676834E+00 -0.16913219E+00
 -0.12370934E+00 -0.82061770E-01 -0.45470485E-01 -0.14907204E-01  0.89922142E-02
  0.25946371E-01  0.36041528E-01  0.39741534E-01  0.37886537E-01  0.31690910E-01
  0.22734338E-01  0.12942937E-01  0.45383481E-02  0.26470659E-03  0.00000000E+00
 Reciprocal Space Part
  0.00000000E+00  0.28405939E-01  0.11291367E+00  0.25140862E+00  0.44041849E+00
  0.67518994E+00  0.94979355E+00  0.12572547E+01  0.15897075E+01  0.19385676E+01
  0.22947219E+01  0.26487280E+01  0.29910219E+01  0.33121276E+01  0.36028641E+01
  0.38545459E+01  0.40591721E+01  0.42096007E+01  0.42997029E+01  0.43244962E+01
  0.42802514E+01  0.41645737E+01  0.39764537E+01  0.37162898E+01  0.33858805E+01
  0.29883874E+01  0.25282696E+01  0.20111924E+01  0.14439110E+01  0.83413307E+00
  0.19036360E+00 -0.47826576E+00 -0.11621774E+01 -0.18515355E+01 -0.25364362E+01
 -0.32070963E+01 -0.38540367E+01 -0.44682565E+01 -0.50413940E+01 -0.55658721E+01
 -0.60350253E+01 -0.64432049E+01 -0.67858624E+01 -0.70596085E+01 -0.72622477E+01
 -0.73927885E+01 -0.74514289E+01 -0.74395189E+01 -0.73595017E+01 -0.72148342E+01
 -0.70098907E+01 -0.67498512E+01 -0.64405773E+01 -0.60884800E+01 -0.57003803E+01
 -0.52833680E+01 -0.48446600E+01 -0.43914625E+01 -0.39308388E+01 -0.34695863E+01
 -0.30141237E+01 -0.25703919E+01 -0.21437685E+01 -0.17389988E+01 -0.13601421E+01
 -0.10105363E+01 -0.69277721E+00 -0.40871645E+00 -0.15947309E+00  0.54539178E-01
  0.23357207E+00  0.37849113E+00  0.49071438E+00  0.57214314E+00  0.62508700E+00
  0.65218501E+00  0.65632500E+00  0.64056318E+00  0.60804559E+00  0.56193333E+00
  0.50533291E+00  0.44123309E+00  0.37244915E+00  0.30157560E+00  0.23094770E+00
  0.16261213E+00  0.98306972E-01  0.39450682E-01 -0.12860222E-01 -0.57845414E-01
 -0.95027666E-01 -0.12421331E+00 -0.14546724E+00 -0.15908353E+00 -0.16555274E+00
 -0.16552710E+00 -0.15978451E+00 -0.14919262E+00 -0.13467377E+00 -0.11717170E+00
 Real Space Part
  0.00000000E+00 -0.39200311E-01 -0.15647193E+00 -0.35082945E+00 -0.62063886E+00
 -0.96363004E+00 -0.13769141E+01 -0.18570054E+01 -0.23998483E+01 -0.30008485E+01
 -0.36549078E+01 -0.43564639E+01 -0.50995331E+01 -0.58777568E+01 -0.66844509E+01
 -0.75126579E+01 -0.83552014E+01 -0.92047431E+01 -0.10053840E+02 -0.10895005E+02
 -0.11720765E+02 -0.12523724E+02 -0.13296620E+02 -0.14032388E+02 -0.14724216E+02
 -0.15365603E+02 -0.15950415E+02 -0.16472938E+02 -0.16927926E+02 -0.17310652E+02
 -0.17616945E+02 -0.17843237E+02 -0.17986594E+02 -0.18044744E+02 -0.18016108E+02
 -0.17899817E+02 -0.17695726E+02 -0.17404423E+02 -0.17027235E+02 -0.16566216E+02
 -0.16024149E+02 -0.15404518E+02 -0.14711492E+02 -0.13949895E+02 -0.13125167E+02
 -0.12243324E+02 -0.11310910E+02 -0.10334940E+02 -0.93228399E+01 -0.82823842E+01
 -0.72216205E+01 -0.61487967E+01 -0.50722803E+01 -0.40004769E+01 -0.29417433E+01
 -0.19043014E+01 -0.89614973E+00  0.75024409E-01  0.10019318E+01  0.18777657E+01
  0.26962826E+01  0.34518786E+01  0.41396595E+01  0.47555030E+01  0.52961136E+01
  0.57590664E+01  0.61428408E+01  0.64468417E+01  0.66714083E+01  0.68178093E+01
  0.68882241E+01  0.68857104E+01  0.68141568E+01  0.66782219E+01  0.64832617E+01
  0.62352444E+01  0.59406525E+01  0.56063783E+01  0.52396117E+01  0.48477199E+01
  0.44381271E+01  0.40181908E+01  0.35950794E+01  0.31756539E+01  0.27663543E+01
  0.23730921E+01  0.20011560E+01  0.16551212E+01  0.13387799E+01  0.10550751E+01
  0.80605620E+00  0.59284598E+00  0.41561740E+00  0.27359635E+00  0.16506577E+00
  0.87391236E-01  0.37060529E-01  0.96802093E-02  0.40173116E-03  0.00000000E+00
 Non local Part
           0           2   1.35013596287815     
   6.91568311079894       -10.9934942390907       -10.9934942390907     
   17.9600523732764     
 Reciprocal Space Part
  0.21014690E+02  0.20901253E+02  0.20562625E+02  0.20003820E+02  0.19233096E+02
  0.18261806E+02  0.17104196E+02  0.15777152E+02  0.14299899E+02  0.12693664E+02
  0.10981304E+02  0.91869105E+01  0.73353929E+01  0.54520563E+01  0.35621766E+01
  0.16905828E+01 -0.13874545E+00 -0.19030580E+01 -0.35811841E+01 -0.51538475E+01
 -0.66039395E+01 -0.79167466E+01 -0.90801294E+01 -0.10084649E+02 -0.10923643E+02
 -0.11593243E+02 -0.12092351E+02 -0.12422551E+02 -0.12587988E+02 -0.12595193E+02
 -0.12452879E+02 -0.12171695E+02 -0.11763958E+02 -0.11243366E+02 -0.10624689E+02
 -0.99234622E+01 -0.91556695E+01 -0.83374377E+01 -0.74847385E+01 -0.66131101E+01
 -0.57373981E+01 -0.48715246E+01 -0.40282855E+01 -0.32191817E+01 -0.24542838E+01
 -0.17421334E+01 -0.10896797E+01 -0.50225280E+00  0.16429754E-01  0.46422327E+00
  0.84048658E+00  0.11459859E+01  0.13827755E+01  0.15540593E+01  0.16640367E+01
  0.17177386E+01  0.17208556E+01  0.16795652E+01  0.16003595E+01  0.14898793E+01
  0.13547564E+01  0.12014686E+01  0.10362085E+01  0.86476941E+00  0.69244932E+00
  0.52397380E+00  0.36343881E+00  0.21427311E+00  0.79219767E-01 -0.39664103E-01
 -0.14099075E+00 -0.22400996E+00 -0.28856403E+00 -0.33503156E+00 -0.36426251E+00
 -0.37750671E+00 -0.37633834E+00 -0.36257856E+00 -0.33821859E+00 -0.30534515E+00
 -0.26607018E+00 -0.22246634E+00 -0.17650957E+00 -0.13002983E+00 -0.84670580E-01
 -0.41857504E-01 -0.27765930E-02  0.31638600E-01  0.60710910E-01  0.84015339E-01
  0.10136749E+00  0.11280561E+00  0.11856730E+00  0.11906215E+00  0.11484126E+00
  0.10656517E+00  0.94971000E-01  0.80840118E-01  0.64967254E-01  0.48131884E-01
 Real Space Part
 -0.28970823E+02 -0.28957362E+02 -0.28916970E+02 -0.28849616E+02 -0.28755254E+02
 -0.28633819E+02 -0.28485230E+02 -0.28309392E+02 -0.28106203E+02 -0.27875550E+02
 -0.27617319E+02 -0.27331394E+02 -0.27017665E+02 -0.26676034E+02 -0.26306416E+02
 -0.25908748E+02 -0.25482993E+02 -0.25029148E+02 -0.24547251E+02 -0.24037384E+02
 -0.23499686E+02 -0.22934353E+02 -0.22341652E+02 -0.21721924E+02 -0.21075591E+02
 -0.20403166E+02 -0.19705258E+02 -0.18982579E+02 -0.18235951E+02 -0.17466312E+02
 -0.16674722E+02 -0.15862364E+02 -0.15030558E+02 -0.14180756E+02 -0.13314547E+02
 -0.12433663E+02 -0.11539976E+02 -0.10635500E+02 -0.97223892E+01 -0.88029346E+01
 -0.78795621E+01 -0.69548252E+01 -0.60313985E+01 -0.51120685E+01 -0.41997230E+01
 -0.32973384E+01 -0.24079650E+01 -0.15347107E+01 -0.68072200E+00  0.15083600E+00
  0.95680246E+00  0.17340447E+01  0.24794844E+01  0.31901245E+01  0.38630784E+01
  0.44955992E+01  0.50851101E+01  0.56292347E+01  0.61258276E+01  0.65730037E+01
  0.69691668E+01  0.73130363E+01  0.76036711E+01  0.78404913E+01  0.80232961E+01
  0.81522772E+01  0.82280283E+01  0.82515494E+01  0.82242452E+01  0.81479186E+01
  0.80247586E+01  0.78573218E+01  0.76485088E+01  0.74015354E+01  0.71198987E+01
  0.68073403E+01  0.64678042E+01  0.61053929E+01  0.57243235E+01  0.53288797E+01
  0.49233670E+01  0.45120676E+01  0.40991974E+01  0.36888666E+01  0.32850426E+01
  0.28915179E+01  0.25118818E+01  0.21494969E+01  0.18074804E+01  0.14886895E+01
  0.11957117E+01  0.93085903E+00  0.69616485E+00  0.49338582E+00  0.32400317E+00
  0.18923406E+00  0.90033294E-01  0.26940521E-01  0.13381936E-02  0.00000000E+00
 Reciprocal Space Part
  0.91452476E+01  0.90792965E+01  0.88824671E+01  0.85578130E+01  0.81103615E+01
  0.75470217E+01  0.68764592E+01  0.61089391E+01  0.52561398E+01  0.43309445E+01
  0.33472102E+01  0.23195226E+01  0.12629402E+01  0.19273217E+00 -0.87588324E+00
 -0.19279960E+01 -0.29492521E+01 -0.39260860E+01 -0.48459360E+01 -0.56974350E+01
 -0.64705771E+01 -0.71568545E+01 -0.77493637E+01 -0.82428799E+01 -0.86338981E+01
 -0.89206411E+01 -0.91030357E+01 -0.91826572E+01 -0.91626454E+01 -0.90475936E+01
 -0.88434145E+01 -0.85571853E+01 -0.81969766E+01 -0.77716691E+01 -0.72907612E+01
 -0.67641735E+01 -0.62020517E+01 -0.56145752E+01 -0.50117713E+01 -0.44033427E+01
 -0.37985075E+01 -0.32058569E+01 -0.26332325E+01 -0.20876231E+01 -0.15750854E+01
 -0.11006855E+01 -0.66846502E+00 -0.28142848E+00  0.58447127E-01  0.35018246E+00
  0.59374738E+00  0.78999583E+00  0.94058634E+00  0.10478908E+01  0.11148940E+01
  0.11450868E+01  0.11423554E+01  0.11108702E+01  0.10549755E+01  0.97908324E+00
  0.88757356E+00  0.78470245E+00  0.67451955E+00  0.56079661E+00  0.44696784E+00
  0.33608267E+00  0.23077121E+00  0.13322233E+00  0.45174004E-01 -0.32084698E-01
 -0.97700915E-01 -0.15123565E+00 -0.19263307E+00 -0.22218284E+00 -0.24047701E+00
 -0.24836288E+00 -0.24689353E+00 -0.23727729E+00 -0.22082775E+00 -0.19891541E+00
 -0.17292236E+00 -0.14420067E+00 -0.11403563E+00 -0.83614225E-01 -0.53999410E-01
 -0.26110378E-01 -0.70890835E-03  0.21608354E-01  0.40411931E-01  0.55436298E-01
  0.66571950E-01  0.73853381E-01  0.77443685E-01  0.77616532E-01  0.74736279E-01
  0.69236999E-01  0.61601153E-01  0.52338620E-01  0.41966698E-01  0.30991646E-01
 Real Space Part
 -0.22187136E+02 -0.22177291E+02 -0.22147752E+02 -0.22098504E+02 -0.22029522E+02
 -0.21940772E+02 -0.21832214E+02 -0.21703801E+02 -0.21555481E+02 -0.21387201E+02
 -0.21198907E+02 -0.20990548E+02 -0.20762081E+02 -0.20513469E+02 -0.20244688E+02
 -0.19955732E+02 -0.19646612E+02 -0.19317367E+02 -0.18968060E+02 -0.18598789E+02
 -0.18209690E+02 -0.17800940E+02 -0.17372760E+02 -0.16925427E+02 -0.16459270E+02
 -0.15974679E+02 -0.15472110E+02 -0.14952088E+02 -0.14415211E+02 -0.13862156E+02
 -0.13293678E+02 -0.12710619E+02 -0.12113908E+02 -0.11504564E+02 -0.10883698E+02
 -0.10252512E+02 -0.96123050E+01 -0.89644679E+01 -0.83104850E+01 -0.76519318E+01
 -0.69904723E+01 -0.63278555E+01 -0.56659102E+01 -0.50065394E+01 -0.43517129E+01
 -0.37034592E+01 -0.30638557E+01 -0.24350177E+01 -0.18190860E+01 -0.12182136E+01
 -0.63455078E+00 -0.70228785E-01  0.47265700E+00  0.99206529E+00  0.14860280E+01
  0.19526697E+01  0.23902279E+01  0.27970731E+01  0.31717293E+01  0.35128932E+01
  0.38194537E+01  0.40905093E+01  0.43253847E+01  0.45236449E+01  0.46851072E+01
  0.48098511E+01  0.48982242E+01  0.49508452E+01  0.49686039E+01  0.49526569E+01
  0.49044195E+01  0.48255543E+01  0.47179555E+01  0.45837303E+01  0.44251768E+01
  0.42447594E+01  0.40450814E+01  0.38288562E+01  0.35988776E+01  0.33579887E+01
  0.31090517E+01  0.28549181E+01  0.25984002E+01  0.23422441E+01  0.20891054E+01
  0.18415277E+01  0.16019230E+01  0.13725560E+01  0.11555313E+01  0.95278324E+00
  0.76606920E+00  0.59696524E+00  0.44686366E+00  0.31697397E+00  0.20832344E+00
  0.12176422E+00  0.57974386E-01  0.17359304E-01  0.86288307E-03  0.00000000E+00
 Non local Part
           1           2   1.35013596287815     
   2.29001716174285        4.28700800379168        4.28700800379168     
   8.16686814478211     
 Reciprocal Space Part
  0.00000000E+00  0.18394348E+01  0.36369757E+01  0.53515775E+01  0.69438736E+01
  0.83769703E+01  0.96171876E+01  0.10634732E+02  0.11404285E+02  0.11905497E+02
  0.12123376E+02  0.12048562E+02  0.11677483E+02  0.11012393E+02  0.10061284E+02
  0.88376871E+01  0.73603529E+01  0.56528354E+01  0.37429773E+01  0.16623141E+01
 -0.55458978E+00 -0.28708581E+01 -0.52480570E+01 -0.76469692E+01 -0.10028372E+02
 -0.12353801E+02 -0.14586286E+02 -0.16691041E+02 -0.18636094E+02 -0.20392850E+02
 -0.21936568E+02 -0.23246752E+02 -0.24307441E+02 -0.25107407E+02 -0.25640240E+02
 -0.25904340E+02 -0.25902809E+02 -0.25643250E+02 -0.25137477E+02 -0.24401151E+02
 -0.23453347E+02 -0.22316068E+02 -0.21013710E+02 -0.19572507E+02 -0.18019944E+02
 -0.16384186E+02 -0.14693494E+02 -0.12975681E+02 -0.11257593E+02 -0.95646284E+01
 -0.79203172E+01 -0.63459550E+01 -0.48603009E+01 -0.34793454E+01 -0.22161474E+01
 -0.10807430E+01 -0.80123075E-01  0.78172133E+00  0.15036923E+01  0.20874205E+01
  0.25370513E+01  0.28589871E+01  0.30615965E+01  0.31548961E+01  0.31502170E+01
  0.30598615E+01  0.28967612E+01  0.26741432E+01  0.24052117E+01  0.21028534E+01
  0.17793694E+01  0.14462418E+01  0.11139361E+01  0.79174242E+00  0.48765811E+00
  0.20831031E+00 -0.41081145E-01 -0.25670279E+00 -0.43611112E+00 -0.57816405E+00
 -0.68292443E+00 -0.75154004E+00 -0.78610493E+00 -0.78950723E+00 -0.76526847E+00
 -0.71737936E+00 -0.65013678E+00 -0.56798650E+00 -0.47537530E+00 -0.37661619E+00
 -0.27576929E+00 -0.17654077E+00 -0.82201128E-01  0.44761937E-02  0.81255696E-01
  0.14646065E+00  0.19897478E+00  0.23822635E+00  0.26415641E+00  0.27717355E+00
 Real Space Part
  0.00000000E+00 -0.27229325E+01 -0.54378779E+01 -0.81368653E+01 -0.10811957E+02
 -0.13455263E+02 -0.16058962E+02 -0.18615313E+02 -0.21116677E+02 -0.23555531E+02
 -0.25924488E+02 -0.28216314E+02 -0.30423948E+02 -0.32540522E+02 -0.34559375E+02
 -0.36474082E+02 -0.38278467E+02 -0.39966629E+02 -0.41532961E+02 -0.42972174E+02
 -0.44279321E+02 -0.45449815E+02 -0.46479460E+02 -0.47364469E+02 -0.48101492E+02
 -0.48687640E+02 -0.49120506E+02 -0.49398195E+02 -0.49519344E+02 -0.49483148E+02
 -0.49289384E+02 -0.48938431E+02 -0.48431291E+02 -0.47769613E+02 -0.46955708E+02
 -0.45992566E+02 -0.44883872E+02 -0.43634012E+02 -0.42248087E+02 -0.40731916E+02
 -0.39092035E+02 -0.37335692E+02 -0.35470841E+02 -0.33506127E+02 -0.31450862E+02
 -0.29315003E+02 -0.27109113E+02 -0.24844326E+02 -0.22532290E+02 -0.20185118E+02
 -0.17815317E+02 -0.15435719E+02 -0.13059397E+02 -0.10699575E+02 -0.83695319E+01
 -0.60824976E+01 -0.38515408E+01 -0.16894529E+01  0.39137207E+00  0.23790609E+01
  0.42623858E+01  0.60308886E+01  0.76750014E+01  0.91861631E+01  0.10556929E+02
  0.11781068E+02  0.12853655E+02  0.13771141E+02  0.14531409E+02  0.15133819E+02
  0.15579225E+02  0.15869972E+02  0.16009883E+02  0.16004205E+02  0.15859554E+02
  0.15583831E+02  0.15186117E+02  0.14676556E+02  0.14066231E+02  0.13367010E+02
  0.12591410E+02  0.11752433E+02  0.10863417E+02  0.99378838E+01  0.89893875E+01
  0.80313809E+01  0.70770823E+01  0.61393606E+01  0.52306295E+01  0.43627581E+01
  0.35469940E+01  0.27939012E+01  0.21133085E+01  0.15142743E+01  0.10050539E+01
  0.59309881E+00  0.28503050E+00  0.86153168E-01  0.41026665E-02  0.00000000E+00
 Reciprocal Space Part
  0.00000000E+00 -0.58902172E+00 -0.11606632E+01 -0.16979147E+01 -0.21844991E+01
 -0.26052181E+01 -0.29462749E+01 -0.31955657E+01 -0.33429347E+01 -0.33803865E+01
 -0.33022510E+01 -0.31052991E+01 -0.27888044E+01 -0.23545525E+01 -0.18067962E+01
 -0.11521589E+01 -0.39948796E+00  0.44033688E+00  0.13546373E+01  0.23292051E+01
  0.33486013E+01  0.43964769E+01  0.54559093E+01  0.65097471E+01  0.75409542E+01
  0.85329474E+01  0.94699187E+01  0.10337137E+02  0.11121223E+02  0.11810389E+02
  0.12394642E+02  0.12865950E+02  0.13218356E+02  0.13448054E+02  0.13553416E+02
  0.13534973E+02  0.13395353E+02  0.13139177E+02  0.12772917E+02  0.12304722E+02
  0.11744207E+02  0.11102231E+02  0.10390643E+02  0.96220261E+01  0.88094306E+01
  0.79661064E+01  0.71052435E+01  0.62397226E+01  0.53818813E+01  0.45433022E+01
  0.37346246E+01  0.29653849E+01  0.22438866E+01  0.15771025E+01  0.97060946E+00
  0.42855598E+00 -0.46338451E-01 -0.45275332E+00 -0.79070872E+00 -0.10614813E+01
 -0.12674975E+01 -0.14122085E+01 -0.14999489E+01 -0.15357854E+01 -0.15253583E+01
 -0.14747195E+01 -0.13901727E+01 -0.12781168E+01 -0.11448994E+01 -0.99667983E+00
 -0.83930686E+00 -0.67821219E+00 -0.51832126E+00 -0.36398279E+00 -0.21891731E+00
 -0.86184877E-01  0.31828529E-01  0.13340693E+00  0.21748381E+00  0.28360674E+00
  0.33188932E+00  0.36295231E+00  0.37785646E+00  0.37802937E+00  0.36518873E+00
  0.34126423E+00  0.30832055E+00  0.26848311E+00  0.22386884E+00  0.17652308E+00
  0.12836427E+00  0.81137164E-01  0.36375325E-01 -0.46267420E-02 -0.40831782E-01
 -0.71468532E-01 -0.96031500E-01 -0.11427250E+00 -0.12618484E+00 -0.13198125E+00
 Real Space Part
  0.00000000E+00  0.14200597E+01  0.28360743E+01  0.42440066E+01  0.56398364E+01
  0.70195682E+01  0.83792399E+01  0.97149313E+01  0.11022773E+02  0.12298953E+02
  0.13539732E+02  0.14741443E+02  0.15900510E+02  0.17013450E+02  0.18076890E+02
  0.19087569E+02  0.20042357E+02  0.20938257E+02  0.21772424E+02  0.22542169E+02
  0.23244974E+02  0.23878505E+02  0.24440619E+02  0.24929380E+02  0.25343068E+02
  0.25680192E+02  0.25939506E+02  0.26120014E+02  0.26220986E+02  0.26241970E+02
  0.26182803E+02  0.26043620E+02  0.25824866E+02  0.25527309E+02  0.25152041E+02
  0.24700495E+02  0.24174447E+02  0.23576020E+02  0.22907694E+02  0.22172303E+02
  0.21373038E+02  0.20513443E+02  0.19597414E+02  0.18629189E+02  0.17613342E+02
  0.16554764E+02  0.15458653E+02  0.14330492E+02  0.13176022E+02  0.12001220E+02
  0.10812264E+02  0.96155002E+01  0.84173998E+01  0.72245190E+01  0.60434499E+01
  0.48807707E+01  0.37429912E+01  0.26364962E+01  0.15674869E+01  0.54192071E+00
 -0.43455015E+00 -0.13566391E+01 -0.22194848E+01 -0.30187086E+01 -0.37504685E+01
 -0.44115085E+01 -0.49992028E+01 -0.55115925E+01 -0.59474154E+01 -0.63061267E+01
 -0.65879104E+01 -0.67936812E+01 -0.69250751E+01 -0.69844307E+01 -0.69747597E+01
 -0.68997095E+01 -0.67635133E+01 -0.65709352E+01 -0.63272091E+01 -0.60379679E+01
 -0.57091744E+01 -0.53470458E+01 -0.49579787E+01 -0.45484763E+01 -0.41250751E+01
 -0.36942787E+01 -0.32624922E+01 -0.28359666E+01 -0.24207457E+01 -0.20226216E+01
 -0.16470965E+01 -0.12993510E+01 -0.98421825E+00 -0.70616503E+00 -0.46927523E+00
 -0.27724811E+00 -0.13338454E+00 -0.40357932E-01 -0.19228414E-02  0.00000000E+00
 PAW radial sets
         359   1.08562403027180     
(5E20.12)                                
 augmentation charges (non sperical)
  0.709683058407E+00 -0.445213039971E+00 -0.138006955931E+00  0.177959415554E+00 -0.144221260991E+00
 -0.260824848374E+00 -0.445213039971E+00  0.212286267702E+00 -0.728851048653E-01  0.111973371454E+00
  0.757963729088E-02 -0.245826765278E-02 -0.138006955931E+00 -0.728851048653E-01 -0.518435979635E+00
  0.790935728254E+00 -0.199245727509E+00 -0.427947368162E+00  0.177959415554E+00  0.111973371454E+00
  0.790935728254E+00 -0.122118747283E+01  0.294492874143E+00  0.638917788847E+00 -0.144221260991E+00
  0.757963729088E-02 -0.199245727509E+00  0.294492874143E+00 -0.768997189928E-01 -0.164973185030E+00
 -0.260824848374E+00 -0.245826765278E-02 -0.427947368162E+00  0.638917788847E+00 -0.164973185030E+00
 -0.355442810214E+00
 uccopancies in atom
  0.200000000350E+01  0.000000000000E+00  0.000000000000E+00  0.000000000000E+00  0.000000000000E+00
  0.000000000000E+00  0.000000000000E+00  0.000000000000E+00  0.000000000000E+00  0.000000000000E+00
  0.000000000000E+00  0.000000000000E+00  0.000000000000E+00  0.000000000000E+00  0.200000000037E+01
  0.000000000000E+00  0.000000000000E+00  0.000000000000E+00  0.000000000000E+00  0.000000000000E+00
  0.000000000000E+00  0.000000000000E+00  0.000000000000E+00  0.000000000000E+00  0.000000000000E+00
  0.000000000000E+00  0.000000000000E+00  0.000000000000E+00  0.100000000178E+01  0.000000000000E+00
  0.000000000000E+00  0.000000000000E+00  0.000000000000E+00  0.000000000000E+00  0.000000000000E+00
  0.000000000000E+00
 grid
  0.689695789594E-04  0.712122976091E-04  0.735279438744E-04  0.759188891794E-04  0.783875820611E-04
  0.809365506766E-04  0.835684053926E-04  0.862858414583E-04  0.890916417657E-04  0.919886796994E-04
  0.949799220796E-04  0.980684321997E-04  0.101257372964E-03  0.104550010127E-03  0.107949715635E-03
  0.111459971086E-03  0.115084371287E-03  0.118826627941E-03  0.122690573446E-03  0.126680164819E-03
  0.130799487750E-03  0.135052760787E-03  0.139444339652E-03  0.143978721707E-03  0.148660550554E-03
  0.153494620795E-03  0.158485882941E-03  0.163639448480E-03  0.168960595114E-03  0.174454772162E-03
  0.180127606142E-03  0.185984906530E-03  0.192032671715E-03  0.198277095136E-03  0.204724571629E-03
  0.211381703973E-03  0.218255309653E-03  0.225352427843E-03  0.232680326611E-03  0.240246510366E-03
  0.248058727541E-03  0.256124978530E-03  0.264453523878E-03  0.273052892744E-03  0.281931891632E-03
  0.291099613414E-03  0.300565446638E-03  0.310339085143E-03  0.320430537991E-03  0.330850139710E-03
  0.341608560883E-03  0.352716819074E-03  0.364186290109E-03  0.376028719730E-03  0.388256235618E-03
  0.400881359820E-03  0.413917021565E-03  0.427376570509E-03  0.441273790408E-03  0.455622913229E-03
  0.470438633727E-03  0.485736124495E-03  0.501531051500E-03  0.517839590128E-03  0.534678441747E-03
  0.552064850813E-03  0.570016622528E-03  0.588552141075E-03  0.607690388445E-03  0.627450963875E-03
  0.647854103921E-03  0.668920703182E-03  0.690672335697E-03  0.713131277037E-03  0.736320527121E-03
  0.760263833768E-03  0.784985717016E-03  0.810511494234E-03  0.836867306047E-03  0.864080143111E-03
  0.892177873749E-03  0.921189272492E-03  0.951144049547E-03  0.982072881224E-03  0.101400744135E-02
  0.104698043370E-02  0.108102562551E-02  0.111617788202E-02  0.115247320222E-02  0.118994875569E-02
  0.122864292067E-02  0.126859532336E-02  0.130984687851E-02  0.135243983133E-02  0.139641780073E-02
  0.144182582397E-02  0.148871040285E-02  0.153711955127E-02  0.158710284443E-02  0.163871146960E-02
  0.169199827850E-02  0.174701784150E-02  0.180382650343E-02  0.186248244133E-02  0.192304572399E-02
  0.198557837352E-02  0.205014442882E-02  0.211681001116E-02  0.218564339193E-02  0.225671506252E-02
  0.233009780654E-02  0.240586677432E-02  0.248409955992E-02  0.256487628054E-02  0.264827965860E-02
  0.273439510644E-02  0.282331081382E-02  0.291511783819E-02  0.300991019796E-02  0.310778496879E-02
  0.320884238300E-02  0.331318593221E-02  0.342092247334E-02  0.353216233801E-02  0.364701944558E-02
  0.376561141975E-02  0.388805970907E-02  0.401448971128E-02  0.414503090177E-02  0.427981696611E-02
  0.441898593701E-02  0.456268033566E-02  0.471104731768E-02  0.486423882382E-02  0.502241173558E-02
  0.518572803584E-02  0.535435497475E-02  0.552846524105E-02  0.570823713886E-02  0.589385477030E-02
  0.608550822406E-02  0.628339377002E-02  0.648771406027E-02  0.669867833665E-02  0.691650264499E-02
  0.714141005645E-02  0.737363089584E-02  0.761340297762E-02  0.786097184933E-02  0.811659104315E-02
  0.838052233545E-02  0.865303601495E-02  0.893441115947E-02  0.922493592175E-02  0.952490782453E-02
  0.983463406524E-02  0.101544318306E-01  0.104846286216E-01  0.108255625884E-01  0.111775828773E-01
  0.115410499878E-01  0.119163361420E-01  0.123038256657E-01  0.127039153821E-01  0.131170150179E-01
  0.135435476233E-01  0.139839500050E-01  0.144386731735E-01  0.149081828050E-01  0.153929597185E-01
  0.158935003678E-01  0.164103173503E-01  0.169439399318E-01  0.174949145884E-01  0.180638055664E-01
  0.186511954597E-01  0.192576858070E-01  0.198838977074E-01  0.205304724566E-01  0.211980722036E-01
  0.218873806289E-01  0.225991036447E-01  0.233339701173E-01  0.240927326144E-01  0.248761681750E-01
  0.256850791056E-01  0.265202938017E-01  0.273826675961E-01  0.282730836349E-01  0.291924537820E-01
  0.301417195527E-01  0.311218530782E-01  0.321338581007E-01  0.331787710020E-01  0.342576618641E-01
  0.353716355655E-01  0.365218329126E-01  0.377094318081E-01  0.389356484570E-01  0.402017386123E-01
  0.415089988609E-01  0.428587679515E-01  0.442524281658E-01  0.456914067334E-01  0.471771772943E-01
  0.487112614072E-01  0.502952301084E-01  0.519307055203E-01  0.536193625126E-01  0.553629304175E-01
  0.571631948011E-01  0.590219992913E-01  0.609412474663E-01  0.629229048041E-01  0.649690006949E-01
  0.670816305197E-01  0.692629577960E-01  0.715152163936E-01  0.738407128220E-01  0.762418285930E-01
  0.787210226587E-01  0.812808339306E-01  0.839238838792E-01  0.866528792184E-01  0.894706146781E-01
  0.923799758656E-01  0.953839422209E-01  0.984855900681E-01  0.101688095766E+00  0.104994738959E+00
  0.108408905940E+00  0.111934093114E+00  0.115573910581E+00  0.119332085831E+00  0.123212467565E+00
  0.127219029633E+00  0.131355875104E+00  0.135627240470E+00  0.140037499981E+00  0.144591170130E+00
  0.149292914272E+00  0.154147547403E+00  0.159160041094E+00  0.164335528574E+00  0.169679309997E+00
  0.175196857860E+00  0.180893822615E+00  0.186776038451E+00  0.192849529272E+00  0.199120514864E+00
  0.205595417262E+00  0.212280867334E+00  0.219183711563E+00  0.226311019067E+00  0.233670088830E+00
  0.241268457183E+00  0.249113905519E+00  0.257214468264E+00  0.265578441100E+00  0.274214389467E+00
  0.283131157332E+00  0.292337876242E+00  0.301843974684E+00  0.311659187732E+00  0.321793567022E+00
  0.332257491045E+00  0.343061675773E+00  0.354217185635E+00  0.365735444848E+00  0.377628249116E+00
  0.389907777710E+00  0.402586605940E+00  0.415677718035E+00  0.429194520436E+00  0.443150855531E+00
  0.457561015827E+00  0.472439758587E+00  0.487802320943E+00  0.503664435502E+00  0.520042346455E+00
  0.536952826215E+00  0.554413192590E+00  0.572441326521E+00  0.591055690393E+00  0.610275346941E+00
  0.630119978773E+00  0.650609908526E+00  0.671766119678E+00  0.693610278038E+00  0.716164753934E+00
  0.739452645119E+00  0.763497800430E+00  0.788324844206E+00  0.813959201510E+00  0.840427124163E+00
  0.867755717631E+00  0.895972968783E+00  0.925107774549E+00  0.955189971515E+00  0.986250366481E+00
  0.101832076801E+01  0.105143401898E+01  0.108562403027E+01  0.112092581544E+01  0.115737552659E+01
  0.119501049141E+01  0.123386925141E+01  0.127399160133E+01  0.131541862999E+01  0.135819276227E+01
  0.140235780262E+01  0.144795897991E+01  0.149504299372E+01  0.154365806220E+01  0.159385397142E+01
  0.164568212640E+01  0.169919560367E+01  0.175444920573E+01  0.181149951708E+01  0.187040496224E+01
  0.193122586552E+01  0.199402451285E+01  0.205886521552E+01  0.212581437609E+01  0.219494055635E+01
  0.226631454753E+01  0.234000944285E+01  0.241610071232E+01  0.249466628006E+01  0.257578660405E+01
  0.265954475861E+01  0.274602651941E+01  0.283532045132E+01  0.292751799914E+01  0.302271358121E+01
  0.312100468612E+01  0.322249197256E+01  0.332727937237E+01  0.343547419702E+01  0.354718724744E+01
  0.366253292758E+01  0.378162936148E+01  0.390459851431E+01  0.403156631721E+01  0.416266279632E+01
  0.429802220588E+01  0.443778316576E+01  0.458208880340E+01  0.473108690037E+01  0.488493004375E+01
  0.504377578237E+01  0.520778678813E+01  0.537713102264E+01  0.555198190919E+01  0.573251851038E+01
  0.591892571145E+01  0.611139440968E+01  0.631012170981E+01  0.651531112599E+01
 aepotential
  0.113915141459E+05  0.114107189615E+05  0.114228326028E+05  0.114274452454E+05  0.114241757273E+05
  0.114126756752E+05  0.113926348192E+05  0.113637852279E+05  0.113259053769E+05  0.112788240503E+05
  0.112224233834E+05  0.111566416883E+05  0.110814752657E+05  0.109969801703E+05  0.109032719996E+05
  0.108005267874E+05  0.106889787600E+05  0.105689198321E+05  0.104406959658E+05  0.103047045150E+05
  0.101613900364E+05  0.100112396737E+05  0.985477816219E+04  0.969256228365E+04  0.952517462866E+04
  0.935321801395E+04  0.917730885774E+04  0.899807109163E+04  0.881613009207E+04  0.863210661476E+04
  0.844661135881E+04  0.826023960738E+04  0.807356647039E+04  0.788714270683E+04  0.770149087634E+04
  0.751710231994E+04  0.733443453782E+04  0.715390925571E+04  0.697591108782E+04  0.680078665196E+04
  0.662884434066E+04  0.646035446447E+04  0.629554990948E+04  0.613462712691E+04  0.597774749785E+04
  0.582503895140E+04  0.567659781952E+04  0.553249086825E+04  0.539275744992E+04  0.525741173893E+04
  0.512644500483E+04  0.499982788752E+04  0.487751264153E+04  0.475943532183E+04  0.464551788839E+04
  0.453567021081E+04  0.442979195904E+04  0.432777436977E+04  0.422950188175E+04  0.413485363649E+04
  0.404370484346E+04  0.395592801104E+04  0.387139404681E+04  0.378997323161E+04  0.371153607438E+04
  0.363595405322E+04  0.356310025192E+04  0.349284989841E+04  0.342508081443E+04  0.335967378403E+04
  0.329651284863E+04  0.323548553538E+04  0.317648303030E+04  0.311940029689E+04  0.306413615193E+04
  0.301059330142E+04  0.295867834468E+04  0.290830174867E+04  0.285937779875E+04  0.281182453236E+04
  0.276556365327E+04  0.272052043529E+04  0.267662361562E+04  0.263380528239E+04  0.259200075341E+04
  0.255114845638E+04  0.251118980376E+04  0.247206906832E+04  0.243373326214E+04  0.239613201231E+04
  0.235921744447E+04  0.232294406666E+04  0.228726865651E+04  0.225215015578E+04  0.221754956505E+04
  0.218342984688E+04  0.214975583167E+04  0.211649412851E+04  0.208361304306E+04  0.205108249744E+04
  0.201887395783E+04  0.198696036530E+04  0.195531607297E+04  0.192391678662E+04  0.189273951151E+04
  0.186176250321E+04  0.183096522312E+04  0.180032829924E+04  0.176983349092E+04  0.173946365855E+04
  0.170920273776E+04  0.167903571821E+04  0.164894862679E+04  0.161892851568E+04  0.158896345491E+04
  0.155904252975E+04  0.152915584291E+04  0.149929452188E+04  0.146945073111E+04  0.143961768985E+04
  0.140978969521E+04  0.137996215099E+04  0.135013160245E+04  0.132029577717E+04  0.129045363136E+04
  0.126060540393E+04  0.123075267443E+04  0.120089842936E+04  0.117104713144E+04  0.114120479569E+04
  0.111137906697E+04  0.108157930052E+04  0.105181664091E+04  0.102210409684E+04  0.992456607984E+03
  0.962891096991E+03  0.933426501701E+03  0.904083777732E+03  0.874885863570E+03  0.845857597496E+03
  0.817025575545E+03  0.788417942967E+03  0.760064111199E+03  0.731994401747E+03  0.704239625709E+03
  0.676830624227E+03  0.649797815208E+03  0.623170820906E+03  0.596978282939E+03  0.571248008485E+03
  0.546007621867E+03  0.521285907086E+03  0.497114999905E+03  0.473533496490E+03  0.450590358175E+03
  0.428349202155E+03  0.406892185467E+03  0.386322299268E+03  0.366762634803E+03  0.348351267622E+03
  0.331231038902E+03  0.315534451865E+03  0.301366132191E+03  0.288785113309E+03  0.277791548154E+03
  0.268320340878E+03  0.260243206300E+03  0.253378397228E+03  0.247505749076E+03  0.242384067238E+03
  0.237768192377E+03  0.233423833512E+03  0.229139001982E+03  0.224731476536E+03  0.220052282580E+03
  0.214985713972E+03  0.209446842599E+03  0.203377575218E+03  0.196742196138E+03  0.189523031956E+03
  0.181716636956E+03  0.173330668475E+03  0.164381503607E+03  0.154892557753E+03  0.144893211789E+03
  0.134418232892E+03  0.123507563116E+03  0.112206349508E+03  0.100565099500E+03  0.886398482794E+02
  0.764922376039E+02  0.641894283288E+02  0.518038074088E+02  0.394125346244E+02  0.270970958750E+02
  0.149431851956E+02  0.304136945594E+01 -0.851104094680E+01 -0.196068603212E+02 -0.301254745198E+02
 -0.399310437206E+02 -0.488758465444E+02 -0.568121280847E+02 -0.636135618994E+02 -0.692033116185E+02
 -0.735817610660E+02 -0.768449491736E+02 -0.791849893487E+02 -0.808656566448E+02 -0.821758018956E+02
 -0.833786555075E+02 -0.846815103779E+02 -0.862346349457E+02 -0.881464742445E+02 -0.904974325580E+02
 -0.933453575446E+02 -0.967260520727E+02 -0.100653864278E+03 -0.105124240136E+03 -0.110117380508E+03
 -0.115601552273E+03 -0.121535231269E+03 -0.127868021937E+03 -0.134540735197E+03 -0.141485183016E+03
 -0.148624269895E+03 -0.155872874594E+03 -0.163139687423E+03 -0.170329398221E+03 -0.177343336407E+03
 -0.184075324823E+03 -0.190399841785E+03 -0.196154279953E+03 -0.201127233435E+03 -0.205074983424E+03
 -0.207787240740E+03 -0.209202665630E+03 -0.209523419323E+03 -0.209203631444E+03 -0.208733490332E+03
 -0.208399994481E+03 -0.208264398194E+03 -0.208297850420E+03 -0.208489629831E+03 -0.208872039713E+03
 -0.209498279926E+03 -0.210413778092E+03 -0.211640869593E+03 -0.213178206167E+03 -0.215007578519E+03
 -0.217101344948E+03 -0.219427478328E+03 -0.221952034026E+03 -0.224639869682E+03 -0.227454471730E+03
 -0.230357498681E+03 -0.233308434347E+03 -0.236264604860E+03 -0.239181702798E+03 -0.242014732701E+03
 -0.244719096099E+03 -0.247251129221E+03 -0.249567478114E+03 -0.251623194374E+03 -0.253370439130E+03
 -0.254761092114E+03 -0.255756550351E+03 -0.256343102588E+03 -0.256543960025E+03 -0.256416883446E+03
 -0.256035372128E+03 -0.255465189350E+03 -0.254750476363E+03 -0.253913436806E+03 -0.252961239343E+03
 -0.251892964247E+03 -0.250703780090E+03 -0.249386869023E+03 -0.247934364668E+03 -0.246338073093E+03
 -0.244590182844E+03 -0.242683919680E+03 -0.240614026541E+03 -0.238377074474E+03 -0.235971642783E+03
 -0.233398262014E+03 -0.230659373235E+03 -0.227759182254E+03 -0.224703523580E+03 -0.221499655020E+03
 -0.218156115097E+03 -0.214682523984E+03 -0.211089398587E+03 -0.207387961514E+03 -0.203589964468E+03
 -0.199707527841E+03 -0.195753013447E+03 -0.191738924274E+03 -0.187677818750E+03 -0.183582217224E+03
 -0.179464477489E+03 -0.175336629115E+03 -0.171210178833E+03 -0.167095901424E+03 -0.163003698171E+03
 -0.158942441639E+03 -0.154919967435E+03 -0.150943073233E+03 -0.147017589038E+03 -0.143148472418E+03
 -0.139339913985E+03 -0.135595438723E+03 -0.131918009624E+03 -0.128310095815E+03 -0.124773739542E+03
 -0.121310599283E+03 -0.117921969807E+03 -0.114608788961E+03 -0.111371625507E+03 -0.108210653296E+03
 -0.105125625244E+03 -0.102115851444E+03 -0.991802024645E+02 -0.963171465436E+02 -0.935248312637E+02
 -0.908012074797E+02 -0.881441833276E+02 -0.855517867278E+02 -0.830223136262E+02 -0.805544395647E+02
 -0.781472822148E+02 -0.758004098150E+02 -0.735137979336E+02 -0.712877412014E+02 -0.691227290688E+02
 -0.670192964203E+02 -0.649778626256E+02 -0.629985761530E+02 -0.610811846697E+02 -0.592249501335E+02
 -0.574286227189E+02 -0.556904769344E+02 -0.540084009329E+02 -0.523800200946E+02 -0.508028317385E+02
 -0.492743299334E+02 -0.477921059174E+02 -0.463539176133E+02 -0.449577285850E+02 -0.436017212256E+02
 -0.422842909093E+02 -0.410040278892E+02 -0.397596926832E+02 -0.385501892404E+02 -0.373745387517E+02
 -0.362318557911E+02 -0.351213275950E+02 -0.340421967054E+02 -0.329937468453E+02
 core charge-density
  0.324109195428E+00  0.340805878356E+00  0.358353700008E+00  0.376795319873E+00  0.396175472967E+00
  0.416541065425E+00  0.437941274032E+00  0.460427649801E+00  0.484054225732E+00  0.508877628850E+00
  0.534957196658E+00  0.562355098103E+00  0.591136459172E+00  0.621369493219E+00  0.653125636132E+00
  0.686479686416E+00  0.721509950307E+00  0.758298391961E+00  0.796930788808E+00  0.837496892125E+00
  0.880090592851E+00  0.924810092698E+00  0.971758080542E+00  0.102104191410E+01  0.107277380683E+01
  0.112707102008E+01  0.118405606024E+01  0.124385688098E+01  0.130660709022E+01  0.137244616187E+01
  0.144151965186E+01  0.151397941838E+01  0.158998384592E+01  0.166969807274E+01  0.175329422132E+01
  0.184095163132E+01  0.193285709442E+01  0.202920509041E+01  0.213019802383E+01  0.223604646021E+01
  0.234696936117E+01  0.246319431711E+01  0.258495777651E+01  0.271250527055E+01  0.284609163151E+01
  0.298598120354E+01  0.313244804405E+01  0.328577611379E+01  0.344625945363E+01  0.361420234584E+01
  0.378991945740E+01  0.397373596259E+01  0.416598764231E+01  0.436702095666E+01  0.457719308770E+01
  0.479687194875E+01  0.502643615624E+01  0.526627496010E+01  0.551678812817E+01  0.577838577990E+01
  0.605148816429E+01  0.633652537668E+01  0.663393700861E+01  0.694417172483E+01  0.726768676093E+01
  0.760494733497E+01  0.795642596591E+01  0.832260169164E+01  0.870395917855E+01  0.910098771499E+01
  0.951418007995E+01  0.994403127846E+01  0.103910371350E+02  0.108556927356E+02  0.113384907095E+02
  0.118399193415E+02  0.123604605044E+02  0.129005874041E+02  0.134607621264E+02  0.140414329774E+02
  0.146430316088E+02  0.152659699199E+02  0.159106367286E+02  0.165773942051E+02  0.172665740618E+02
  0.179784734956E+02  0.187133508791E+02  0.194714211989E+02  0.202528512417E+02  0.210577545313E+02
  0.218861860207E+02  0.227381365484E+02  0.236135270691E+02  0.245122026757E+02  0.254339264301E+02
  0.263783730266E+02  0.273451223179E+02  0.283336527361E+02  0.293433346505E+02  0.303734237074E+02
  0.314230542051E+02  0.324912325674E+02  0.335768309805E+02  0.346785812740E+02  0.357950691293E+02
  0.369247287108E+02  0.380658378247E+02  0.392165137177E+02  0.403747096392E+02  0.415382123002E+02
  0.427046403692E+02  0.438714441567E+02  0.450359066471E+02  0.461951460435E+02  0.473461199982E+02
  0.484856317062E+02  0.496103380408E+02  0.507167599127E+02  0.518012950323E+02  0.528602332477E+02
  0.538897746260E+02  0.548860504307E+02  0.558451471322E+02  0.567631335681E+02  0.576360913390E+02
  0.584601484984E+02  0.592315165490E+02  0.599465307179E+02  0.606016934241E+02  0.611937207948E+02
  0.617195920166E+02  0.621766012314E+02  0.625624116042E+02  0.628751110986E+02  0.631132694000E+02
  0.632759953211E+02  0.633629939213E+02  0.633746224582E+02  0.633119441808E+02  0.631767788634E+02
  0.629717488741E+02  0.627003194748E+02  0.623668319581E+02  0.619765281591E+02  0.615355648206E+02
  0.610510162636E+02  0.605308638102E+02  0.599839704393E+02  0.594200392243E+02  0.588495542162E+02
  0.582837025969E+02  0.577342771410E+02  0.572135582952E+02  0.567341755131E+02  0.563089478677E+02
  0.559507044166E+02  0.556720852965E+02  0.554853250879E+02  0.554020206014E+02  0.554328858956E+02
  0.555874980393E+02  0.558740377420E+02  0.562990300447E+02  0.568670903347E+02  0.575806822956E+02
  0.584398945530E+02  0.594422434145E+02  0.605825094256E+02  0.618526156376E+02  0.632415554575E+02
  0.647353776960E+02  0.663172359124E+02  0.679675083541E+02  0.696639936760E+02  0.713821861982E+02
  0.730956327016E+02  0.747763706941E+02  0.763954456992E+02  0.779235024816E+02  0.793314422349E+02
  0.805911347298E+02  0.816761712827E+02  0.825626412957E+02  0.832299121357E+02  0.836613893871E+02
  0.838452321968E+02  0.837749966662E+02  0.834501792027E+02  0.828766315870E+02  0.820668203833E+02
  0.810399053674E+02  0.798216149695E+02  0.784439013925E+02  0.769443641034E+02  0.753654377383E+02
  0.737533489986E+02  0.721568566409E+02  0.706257988657E+02  0.692094829284E+02  0.679549621606E+02
  0.669052553238E+02  0.660975718010E+02  0.655616130563E+02  0.653180255708E+02  0.653770825415E+02
  0.657376704478E+02  0.663866520389E+02  0.672986676280E+02  0.684364238074E+02  0.697514997842E+02
  0.711856783164E+02  0.726727823326E+02  0.741409730996E+02  0.755154401273E+02  0.767213894835E+02
  0.776872143068E+02  0.783477113956E+02  0.786471934142E+02  0.785423394418E+02  0.780046282920E+02
  0.770222094800E+02  0.756010858654E+02  0.737655094038E+02  0.715575264173E+02  0.690356499786E+02
  0.662726827016E+02  0.633527610674E+02  0.603677397217E+02  0.574130778131E+02  0.545834260700E+02
  0.519681395874E+02  0.496469540955E+02  0.476860609398E+02  0.461347979527E+02  0.450231423465E+02
  0.443601531901E+02  0.441334685893E+02  0.443099244768E+02  0.448373144078E+02  0.456472242902E+02
  0.466587449808E+02  0.477827693380E+02  0.489265868530E+02  0.499985347028E+02  0.509124783191E+02
  0.515918880944E+02  0.519732835952E+02  0.520088522170E+02  0.516681087850E+02  0.509385366087E+02
  0.498252254103E+02  0.483495879581E+02  0.465472908275E+02  0.444655736344E+02  0.421601549944E+02
  0.396919325634E+02  0.371236798625E+02  0.345169259150E+02  0.319291772431E+02  0.294116084884E+02
  0.270073083110E+02  0.247501277835E+02  0.226641363089E+02  0.207636538852E+02  0.190537916419E+02
  0.175314140035E+02  0.161864190696E+02  0.150032324779E+02  0.139624134387E+02  0.130422762219E+02
  0.122204318721E+02  0.114751585507E+02  0.107865315341E+02  0.101372677867E+02  0.951327374402E+01
  0.890390907280E+01  0.830199540990E+01  0.770360945788E+01  0.710770672348E+01  0.651562606416E+01
  0.593052571296E+01  0.535679847029E+01  0.479950710290E+01  0.426387629698E+01  0.375486105055E+01
  0.327680723554E+01  0.283321244863E+01  0.242658238202E+01  0.205837483562E+01  0.172901969085E+01
  0.143799762506E+01  0.118396265549E+01  0.964892188752E+00  0.778249709349E+00  0.621147701563E+00
  0.490500868044E+00  0.383162424972E+00  0.296038883969E+00  0.226181102284E+00  0.170851379269E+00
  0.127567939907E+00  0.941292626397E-01  0.686214012320E-01  0.494117669867E-01  0.351328422062E-01
  0.246590625299E-01  0.170797104032E-01  0.116701752410E-01  0.786341895004E-02  0.522298486045E-02
  0.341843603058E-02  0.220372452594E-02  0.139868472073E-02  0.873611106101E-03  0.536718842304E-03
  0.324184222481E-03  0.192411258034E-03  0.112158221408E-03  0.641731641209E-04  0.360203926549E-04
  0.198224993586E-04  0.106885118356E-04  0.564352626522E-05  0.291592170801E-05  0.147333899245E-05
  0.727499130974E-06  0.350799047062E-06  0.165068745628E-06  0.757402507108E-07  0.338616879281E-07
  0.147388469367E-07  0.624067911016E-08  0.256826676381E-08  0.102636010638E-08  0.397929397553E-09
  0.149533054094E-09  0.544069042620E-10  0.191469376411E-10  0.651025742685E-11  0.213627925874E-11
  0.675723953315E-12  0.205781280179E-12  0.602594813688E-13  0.169461005300E-13  0.457051522974E-14
  0.118065146867E-14  0.291697842110E-15  0.688297851293E-16  0.154885292348E-16  0.331875039885E-17
  0.676067272101E-18  0.130724067682E-18  0.239523978657E-19  0.415168833372E-20  0.679537229887E-21
  0.104838287592E-21  0.152168240343E-22  0.207385183590E-23  0.264853117444E-24
 kinetic energy-density
  0.108086701985E+08  0.106988263757E+08  0.105908900064E+08  0.104848526287E+08  0.103807057464E+08
  0.102784408822E+08  0.101780496065E+08  0.100795235634E+08  0.998285452214E+07  0.988803439660E+07
  0.979505528136E+07  0.970390948409E+07  0.961458956876E+07  0.952708834605E+07  0.944139898076E+07
  0.935751490714E+07  0.927542998612E+07  0.919513843466E+07  0.911663487331E+07  0.903991436455E+07
  0.896497242796E+07  0.889180504744E+07  0.882040872771E+07  0.875078042835E+07  0.868291766026E+07
  0.861681844331E+07  0.855248134084E+07  0.848990545480E+07  0.842909041918E+07  0.837003643755E+07
  0.831274424507E+07  0.825721511449E+07  0.820345088862E+07  0.815145392466E+07  0.810122713238E+07
  0.805277394715E+07  0.800609832133E+07  0.796120473786E+07  0.791809817694E+07  0.787678412673E+07
  0.783726856584E+07  0.779955795826E+07  0.776365924040E+07  0.772957981342E+07  0.769732753282E+07
  0.766691069433E+07  0.763833802435E+07  0.761161866588E+07  0.758676216348E+07  0.756377844826E+07
  0.754267781996E+07  0.752347092796E+07  0.750616874984E+07  0.749078256752E+07  0.747732394083E+07
  0.746580467795E+07  0.745623680253E+07  0.744863251707E+07  0.744300416224E+07  0.743936417154E+07
  0.743772502173E+07  0.743809917645E+07  0.744049902686E+07  0.744493682214E+07  0.745142459808E+07
  0.745997409308E+07  0.747059666334E+07  0.748330318223E+07  0.749810393758E+07  0.751500851405E+07
  0.753402567351E+07  0.755516321497E+07  0.757842783170E+07  0.760382495398E+07  0.763135857887E+07
  0.766103108874E+07  0.769284305492E+07  0.772679303216E+07  0.776287732891E+07  0.780108977471E+07
  0.784142146303E+07  0.788386048388E+07  0.792839163334E+07  0.797499611632E+07  0.802365122194E+07
  0.807432998857E+07  0.812700085128E+07  0.818162726550E+07  0.823816732383E+07  0.829657334643E+07
  0.835679146092E+07  0.841876116550E+07  0.848241487484E+07  0.854767745664E+07  0.861446575183E+07
  0.868268808706E+07  0.875224377882E+07  0.882302262909E+07  0.889490442065E+07  0.896775841172E+07
  0.904144283388E+07  0.911580439760E+07  0.919067781274E+07  0.926588532437E+07  0.934123627345E+07
  0.941652668910E+07  0.949153891503E+07  0.956604128376E+07  0.963978784273E+07  0.971251814199E+07
  0.978395709435E+07  0.985381491694E+07  0.992178716498E+07  0.998755486910E+07  0.100507847881E+08
  0.101111297888E+08  0.101682293654E+08  0.102217103106E+08  0.102711875520E+08  0.103162651645E+08
  0.103565375713E+08  0.103915909457E+08  0.104210048233E+08  0.104443539339E+08  0.104612102635E+08
  0.104711453481E+08  0.104737328092E+08  0.104685511290E+08  0.104551866662E+08  0.104332369066E+08
  0.104023139433E+08  0.103620481711E+08  0.103120921829E+08  0.102521248413E+08  0.101818555056E+08
  0.101010283773E+08  0.100094269257E+08  0.990687835650E+07  0.979325806291E+07  0.966849401508E+07
  0.953257101585E+07  0.938553476323E+07  0.922749564226E+07  0.905863217235E+07  0.887919402969E+07
  0.868950456141E+07  0.848996270891E+07  0.828104425735E+07  0.806330233164E+07  0.783736705891E+07
  0.760394432956E+07  0.736381359185E+07  0.711782462193E+07  0.686689322786E+07  0.661199585004E+07
  0.635416303760E+07  0.609447179596E+07  0.583403681375E+07  0.557400060952E+07  0.531552266176E+07
  0.505976762850E+07  0.480789279304E+07  0.456103488748E+07  0.432029663737E+07  0.408673303637E+07
  0.386133776453E+07  0.364502989519E+07  0.343864112174E+07  0.324290371923E+07  0.305843946063E+07
  0.288574971701E+07  0.272520697634E+07  0.257704801625E+07  0.244136895778E+07  0.231812240798E+07
  0.220711687123E+07  0.210801857268E+07  0.202035578904E+07  0.194352573325E+07  0.187680398057E+07
  0.181935636468E+07  0.177025321295E+07  0.172848572606E+07  0.169298424809E+07  0.166263811617E+07
  0.163631671922E+07  0.161289135202E+07  0.159125740071E+07  0.157035636303E+07  0.154919718089E+07
  0.152687634371E+07  0.150259622104E+07  0.147568109668E+07  0.144559039938E+07  0.141192867957E+07
  0.137445194325E+07  0.133307003976E+07  0.128784490667E+07  0.123898458449E+07  0.118683304709E+07
  0.113185602088E+07  0.107462310794E+07  0.101578668411E+07  0.956058204356E+06  0.896182720652E+06
  0.836912536133E+06  0.778981028224E+06  0.723077623460E+06  0.669824860597E+06  0.619758275769E+06
  0.573310029102E+06  0.530796489653E+06  0.492410492309E+06  0.458218490054E+06  0.428162774720E+06
  0.402068694655E+06  0.379656546575E+06  0.360557573390E+06  0.344333279201E+06  0.330497101542E+06
  0.318537366912E+06  0.307940404214E+06  0.298212705641E+06  0.288901092912E+06  0.279609971715E+06
  0.270014922359E+06  0.259872078618E+06  0.249022974392E+06  0.237394787508E+06  0.224996167022E+06
  0.211909079175E+06  0.198277323675E+06  0.184292518695E+06  0.170178421472E+06  0.156174467671E+06
  0.142519464561E+06  0.129436468470E+06  0.117119925891E+06  0.105726029017E+06  0.953668469146E+05
  0.861078627723E+05  0.779683040479E+05  0.709237945458E+05  0.649113184415E+05  0.598360394038E+05
  0.555795268728E+05  0.520086608778E+05  0.489845490007E+05  0.463708354019E+05  0.440408789383E+05
  0.418834183688E+05  0.398065096425E+05  0.377396883990E+05  0.356344575624E+05  0.334633142061E+05
  0.312176060275E+05  0.289045457894E+05  0.265437174413E+05  0.241633862325E+05  0.217968821724E+05
  0.194792853668E+05  0.172445681594E+05  0.151233137861E+05  0.131410456252E+05  0.113171989701E+05
  0.966464346636E+04  0.818970941325E+04  0.689260977279E+04  0.576817364215E+04  0.480679244345E+04
  0.399552287978E+04  0.331919686010E+04  0.276147934937E+04  0.230578694780E+04  0.193603590893E+04
  0.163721203627E+04  0.139576936438E+04  0.119987123752E+04  0.103949206356E+04  0.906402168094E+03
  0.794060781795E+03  0.697443586874E+03  0.612832239944E+03  0.537575834840E+03  0.469876308412E+03
  0.408566549383E+03  0.352926372993E+03  0.302527069154E+03  0.257109157996E+03  0.216490259853E+03
  0.180504572271E+03  0.148963483731E+03  0.121636909750E+03  0.982485930585E+02  0.784811217788E+02
  0.619867546458E+02  0.484009132455E+02  0.373559943212E+02  0.284938991080E+02  0.214763214640E+02
  0.159923571139E+02  0.117633874758E+02  0.854546174652E+01  0.612956498376E+01  0.434023886351E+01
  0.303303126099E+01  0.209121711210E+01  0.142216581686E+01  0.953652865494E+00  0.630332559012E+00
  0.410515180105E+00  0.263329721155E+00  0.166304213725E+00  0.103359708390E+00  0.631896866498E-01
  0.379822349567E-01  0.224355546378E-01  0.130163036476E-01  0.741302732404E-02  0.414202768954E-02
  0.226924948734E-02  0.121824860702E-02  0.640467575610E-03  0.329518672363E-03  0.165802153378E-03
  0.815314375406E-04  0.391538611927E-04  0.183493497243E-04  0.838566099288E-05  0.373413210225E-05
  0.161894928049E-05  0.682829596903E-06  0.279935959547E-06  0.111452499909E-06  0.430533970112E-07
  0.161211492986E-07  0.584549943761E-08  0.205036499165E-08  0.694947503321E-09  0.227348434076E-09
  0.717034416304E-10  0.217754337401E-10  0.635954087089E-11  0.178383062182E-11  0.479922475001E-12
  0.123675327700E-12  0.304844583363E-13  0.717678333883E-14  0.161135969436E-14  0.344511536299E-15
  0.700296310990E-16  0.135121555868E-16  0.247063554181E-17  0.427354145620E-18  0.698059686366E-19
  0.107480071993E-19  0.155694578226E-20  0.211778338863E-21  0.269945662157E-22
 mkinetic energy-density pseudized
  0.233291916073E-05  0.248710738219E-05  0.265148627280E-05  0.282672935829E-05  0.301355467931E-05
  0.321272773355E-05  0.342506461226E-05  0.365143534412E-05  0.389276746007E-05  0.415004979379E-05
  0.442433653336E-05  0.471675154063E-05  0.502849295620E-05  0.536083810860E-05  0.571514874808E-05
  0.609287662620E-05  0.649556944424E-05  0.692487719473E-05  0.738255892216E-05  0.787048993044E-05
  0.839066946676E-05  0.894522891334E-05  0.953644052050E-05  0.101667267170E-04  0.108386700355E-04
  0.115550236947E-04  0.123187228797E-04  0.131328967691E-04  0.140008813563E-04  0.149262331184E-04
  0.159127435884E-04  0.169644548906E-04  0.180856763030E-04  0.192810019137E-04  0.205553294450E-04
  0.219138803212E-04  0.233622210625E-04  0.249062860938E-04  0.265524020596E-04  0.283073137473E-04
  0.301782117229E-04  0.321727617937E-04  0.342991364177E-04  0.365660481896E-04  0.389827855398E-04
  0.415592507920E-04  0.443060007372E-04  0.472342898891E-04  0.503561165975E-04  0.536842722104E-04
  0.572323934848E-04  0.610150184617E-04  0.650476460338E-04  0.693467994499E-04  0.739300940170E-04
  0.788163092767E-04  0.840254659513E-04  0.895789079766E-04  0.954993899549E-04  0.101811170389E-03
  0.108540111078E-03  0.115713783082E-03  0.123361579689E-03  0.131514836852E-03  0.140206961581E-03
  0.149473568821E-03  0.159352627383E-03  0.169884615508E-03  0.181112686728E-03  0.193082846670E-03
  0.205844141561E-03  0.219448859185E-03  0.233952743120E-03  0.249415221135E-03  0.265899648686E-03
  0.283473568496E-03  0.302208987299E-03  0.322182670868E-03  0.343476458544E-03  0.366177598555E-03
  0.390379105484E-03  0.416180141378E-03  0.443686422031E-03  0.473010650122E-03  0.504272976979E-03
  0.537601494859E-03  0.573132761762E-03  0.611012360923E-03  0.651395497288E-03  0.694447633400E-03
  0.740345167316E-03  0.789276155313E-03  0.841441082367E-03  0.897053683538E-03  0.956341819639E-03
  0.101954841077E-02  0.108693243156E-02  0.115876997211E-02  0.123535536917E-02  0.131700241192E-02
  0.140404562753E-02  0.149684165161E-02  0.159577068929E-02  0.170123807273E-02  0.181367592163E-02
  0.193354491345E-02  0.206133617055E-02  0.219757327208E-02  0.234281439870E-02  0.249765461912E-02
  0.266272832762E-02  0.283871184261E-02  0.302632617693E-02  0.322633999109E-02  0.343957274160E-02
  0.366689803738E-02  0.390924721769E-02  0.416761316661E-02  0.444305437930E-02  0.473669929691E-02
  0.504975092776E-02  0.538349177377E-02  0.573928908212E-02  0.611860044379E-02  0.652297976175E-02
  0.695408361323E-02  0.741367803200E-02  0.790364573846E-02  0.842599384698E-02  0.898286208201E-02
  0.957653153643E-02  0.102094340080E-01  0.108841619518E-01  0.116034790897E-01  0.123703317190E-01
  0.131878607685E-01  0.140594146480E-01  0.149885629468E-01  0.159791110349E-01  0.170351156264E-01
  0.181609013701E-01  0.193610785322E-01  0.206405618453E-01  0.220045905988E-01  0.234587500530E-01
  0.250089942630E-01  0.266616704061E-01  0.284235447095E-01  0.303018300859E-01  0.323042155851E-01
  0.344388977844E-01  0.367146142421E-01  0.391406791495E-01  0.417270213257E-01  0.444842247076E-01
  0.474235714972E-01  0.505570881416E-01  0.538975943269E-01  0.574587551846E-01  0.612551369188E-01
  0.653022660742E-01  0.696166926840E-01  0.742160575459E-01  0.791191638950E-01  0.843460537566E-01
  0.899180892798E-01  0.958580393738E-01  0.102190171986E+00  0.108940352382E+00  0.116136147820E+00
  0.123806939005E+00  0.131984038793E+00  0.140700818555E+00  0.149992842736E+00  0.159898012087E+00
  0.170456716137E+00  0.181711995477E+00  0.193709714469E+00  0.206498745024E+00  0.220131162147E+00
  0.234662451958E+00  0.250151732959E+00  0.266661991366E+00  0.284260331339E+00  0.303018241017E+00
  0.323011875307E+00  0.344322356409E+00  0.367036093133E+00  0.391245120093E+00  0.417047457935E+00
  0.444547495793E+00  0.473856397235E+00  0.505092531002E+00  0.538381927911E+00  0.573858765329E+00
  0.611665880691E+00  0.651955315587E+00  0.694888891958E+00  0.740638822030E+00  0.789388353617E+00
  0.841332452453E+00  0.896678523274E+00  0.955647171312E+00  0.101847300594E+01  0.108540548814E+01
  0.115670982339E+01  0.123266790166E+01  0.131357928598E+01  0.139976225085E+01  0.149155487203E+01
  0.158931616841E+01  0.169342729710E+01  0.180429280208E+01  0.192234191659E+01  0.204802991914E+01
  0.218183954226E+01  0.232428243257E+01  0.247590066029E+01  0.263726827499E+01  0.280899290384E+01
  0.299171738723E+01  0.318612144528E+01  0.339292336741E+01  0.361288171510E+01  0.384679702618E+01
  0.409551350640E+01  0.435992069153E+01  0.464095506015E+01  0.493960157368E+01  0.525689511647E+01
  0.559392180406E+01  0.595182012302E+01  0.633178185961E+01  0.673505276876E+01  0.716293292709E+01
  0.761677670638E+01  0.809799229437E+01  0.860804068060E+01  0.914843401372E+01  0.972073322475E+01
  0.103265447981E+02  0.109675165570E+02  0.116453323159E+02  0.123617052338E+02  0.131183696859E+02
  0.139170714520E+02  0.147595559981E+02  0.156475546104E+02  0.165827681140E+02  0.175668478938E+02
  0.186013739063E+02  0.196878293580E+02  0.208275717008E+02  0.220217995853E+02  0.232715153955E+02
  0.245774829887E+02  0.259401802609E+02  0.273597461767E+02  0.288359219218E+02  0.303679858864E+02
  0.319546822433E+02  0.335941429819E+02  0.352838033721E+02  0.370203109967E+02  0.387994286885E+02
  0.406159319663E+02  0.424635018806E+02  0.443346145643E+02  0.462204292519E+02  0.481106770873E+02
  0.499935536891E+02  0.518556192068E+02  0.536817104639E+02  0.554548707660E+02  0.571563040346E+02
  0.587653611041E+02  0.602595672656E+02  0.616147014147E+02  0.628049384088E+02  0.638030673748E+02
  0.645807996280E+02  0.651091804094E+02  0.653591186454E+02  0.653020481285E+02  0.649107316337E+02
  0.641602161598E+02  0.630289423223E+02  0.615000034589E+02  0.595625397517E+02  0.572132391172E+02
  0.544578992880E+02  0.513129840491E+02  0.478070808029E+02  0.439821366682E+02  0.398943167881E+02
  0.356142927594E+02  0.312267333634E+02  0.268287376150E+02  0.225269266132E+02  0.184329027373E+02
  0.146568014204E+02  0.112987133029E+02  0.843785627458E+01  0.611954244300E+01  0.434022926749E+01
  0.303303126099E+01  0.209121711210E+01  0.142216581686E+01  0.953652865494E+00  0.630332559012E+00
  0.410515180105E+00  0.263329721155E+00  0.166304213725E+00  0.103359708390E+00  0.631896866498E-01
  0.379822349567E-01  0.224355546378E-01  0.130163036476E-01  0.741302732404E-02  0.414202768954E-02
  0.226924948734E-02  0.121824860702E-02  0.640467575610E-03  0.329518672363E-03  0.165802153378E-03
  0.815314375406E-04  0.391538611927E-04  0.183493497243E-04  0.838566099288E-05  0.373413210225E-05
  0.161894928049E-05  0.682829596903E-06  0.279935959547E-06  0.111452499909E-06  0.430533970112E-07
  0.161211492986E-07  0.584549943761E-08  0.205036499165E-08  0.694947503321E-09  0.227348434076E-09
  0.717034416304E-10  0.217754337401E-10  0.635954087089E-11  0.178383062182E-11  0.479922475001E-12
  0.123675327700E-12  0.304844583363E-13  0.717678333883E-14  0.161135969436E-14  0.344511536299E-15
  0.700296310990E-16  0.135121555868E-16  0.247063554181E-17  0.427354145620E-18  0.698059686366E-19
  0.107480071993E-19  0.155694578226E-20  0.211778338863E-21  0.269945662157E-22
 local pseudopotential core
 -0.468738594570E+03 -0.468740015719E+03 -0.468741392098E+03 -0.468742725117E+03 -0.468744016141E+03
 -0.468745266491E+03 -0.468746477447E+03 -0.468747650249E+03 -0.468748786096E+03 -0.468749886153E+03
 -0.468750951544E+03 -0.468751983360E+03 -0.468752982658E+03 -0.468753950458E+03 -0.468754887753E+03
 -0.468755795500E+03 -0.468756674630E+03 -0.468757526039E+03 -0.468758350600E+03 -0.468759149156E+03
 -0.468759922523E+03 -0.468760671493E+03 -0.468761396829E+03 -0.468762099275E+03 -0.468762779548E+03
 -0.468763438342E+03 -0.468764076330E+03 -0.468764694165E+03 -0.468765292476E+03 -0.468765871874E+03
 -0.468766432949E+03 -0.468766976276E+03 -0.468767502406E+03 -0.468768011875E+03 -0.468768505204E+03
 -0.468768982892E+03 -0.468769445427E+03 -0.468769893279E+03 -0.468770326901E+03 -0.468770746734E+03
 -0.468771153204E+03 -0.468771546721E+03 -0.468771927684E+03 -0.468772296477E+03 -0.468772653472E+03
 -0.468772999030E+03 -0.468773333496E+03 -0.468773657207E+03 -0.468773970487E+03 -0.468774273649E+03
 -0.468774566994E+03 -0.468774850814E+03 -0.468775125391E+03 -0.468775390994E+03 -0.468775647885E+03
 -0.468775896316E+03 -0.468776136528E+03 -0.468776368754E+03 -0.468776593219E+03 -0.468776810136E+03
 -0.468777019711E+03 -0.468777222143E+03 -0.468777417621E+03 -0.468777606324E+03 -0.468777788427E+03
 -0.468777964092E+03 -0.468778133476E+03 -0.468778296728E+03 -0.468778453988E+03 -0.468778605389E+03
 -0.468778751055E+03 -0.468778891103E+03 -0.468779025641E+03 -0.468779154771E+03 -0.468779278586E+03
 -0.468779397170E+03 -0.468779510599E+03 -0.468779618944E+03 -0.468779722263E+03 -0.468779820609E+03
 -0.468779914024E+03 -0.468780002542E+03 -0.468780086190E+03 -0.468780164981E+03 -0.468780238922E+03
 -0.468780308010E+03 -0.468780372231E+03 -0.468780431560E+03 -0.468780485960E+03 -0.468780535387E+03
 -0.468780579779E+03 -0.468780619067E+03 -0.468780653166E+03 -0.468780681977E+03 -0.468780705391E+03
 -0.468780723278E+03 -0.468780735498E+03 -0.468780741890E+03 -0.468780742280E+03 -0.468780736472E+03
 -0.468780724253E+03 -0.468780705389E+03 -0.468780679625E+03 -0.468780646682E+03 -0.468780606259E+03
 -0.468780558028E+03 -0.468780501636E+03 -0.468780436699E+03 -0.468780362804E+03 -0.468780279506E+03
 -0.468780186326E+03 -0.468780082749E+03 -0.468779968221E+03 -0.468779842147E+03 -0.468779703891E+03
 -0.468779552767E+03 -0.468779388043E+03 -0.468779208934E+03 -0.468779014599E+03 -0.468778804139E+03
 -0.468778576591E+03 -0.468778330927E+03 -0.468778066044E+03 -0.468777780769E+03 -0.468777473842E+03
 -0.468777143923E+03 -0.468776789576E+03 -0.468776409269E+03 -0.468776001367E+03 -0.468775564124E+03
 -0.468775095675E+03 -0.468774594031E+03 -0.468774057069E+03 -0.468773482522E+03 -0.468772867972E+03
 -0.468772210840E+03 -0.468771508374E+03 -0.468770757637E+03 -0.468769955498E+03 -0.468769098616E+03
 -0.468768183427E+03 -0.468767206131E+03 -0.468766162675E+03 -0.468765048736E+03 -0.468763859704E+03
 -0.468762590662E+03 -0.468761236370E+03 -0.468759791236E+03 -0.468758249301E+03 -0.468756604206E+03
 -0.468754849177E+03 -0.468752976985E+03 -0.468750979927E+03 -0.468748849787E+03 -0.468746577807E+03
 -0.468744154647E+03 -0.468741570351E+03 -0.468738814304E+03 -0.468735875187E+03 -0.468732740936E+03
 -0.468729398685E+03 -0.468725834720E+03 -0.468722034420E+03 -0.468717982197E+03 -0.468713661433E+03
 -0.468709054411E+03 -0.468704142246E+03 -0.468698904803E+03 -0.468693320616E+03 -0.468687366804E+03
 -0.468681018972E+03 -0.468674251117E+03 -0.468667035517E+03 -0.468659342619E+03 -0.468651140922E+03
 -0.468642396845E+03 -0.468633074588E+03 -0.468623135992E+03 -0.468612540379E+03 -0.468601244389E+03
 -0.468589201799E+03 -0.468576363343E+03 -0.468562676501E+03 -0.468548085296E+03 -0.468532530057E+03
 -0.468515947184E+03 -0.468498268886E+03 -0.468479422908E+03 -0.468459332235E+03 -0.468437914783E+03
 -0.468415083065E+03 -0.468390743839E+03 -0.468364797729E+03 -0.468337138824E+03 -0.468307654251E+03
 -0.468276223723E+03 -0.468242719049E+03 -0.468207003623E+03 -0.468168931874E+03 -0.468128348683E+03
 -0.468085088761E+03 -0.468038975987E+03 -0.467989822708E+03 -0.467937428987E+03 -0.467881581813E+03
 -0.467822054249E+03 -0.467758604539E+03 -0.467690975148E+03 -0.467618891750E+03 -0.467542062146E+03
 -0.467460175120E+03 -0.467372899219E+03 -0.467279881466E+03 -0.467180745983E+03 -0.467075092537E+03
 -0.466962495001E+03 -0.466842499709E+03 -0.466714623726E+03 -0.466578353009E+03 -0.466433140458E+03
 -0.466278403853E+03 -0.466113523678E+03 -0.465937840806E+03 -0.465750654065E+03 -0.465551217660E+03
 -0.465338738453E+03 -0.465112373089E+03 -0.464871224977E+03 -0.464614341093E+03 -0.464340708632E+03
 -0.464049251474E+03 -0.463738826479E+03 -0.463408219594E+03 -0.463056141770E+03 -0.462681224697E+03
 -0.462282016329E+03 -0.461856976223E+03 -0.461404470672E+03 -0.460922767645E+03 -0.460410031518E+03
 -0.459864317624E+03 -0.459283566606E+03 -0.458665598581E+03 -0.458008107144E+03 -0.457308653201E+03
 -0.456564658655E+03 -0.455773399974E+03 -0.454932001647E+03 -0.454037429563E+03 -0.453086484350E+03
 -0.452075794700E+03 -0.451001810729E+03 -0.449860797423E+03 -0.448648828218E+03 -0.447361778785E+03
 -0.445995321086E+03 -0.444544917778E+03 -0.443005817070E+03 -0.441373048106E+03 -0.439641417007E+03
 -0.437805503698E+03 -0.435859659633E+03 -0.433798006611E+03 -0.431614436829E+03 -0.429302614392E+03
 -0.426855978504E+03 -0.424267748606E+03 -0.421530931778E+03 -0.418638332778E+03 -0.415582567156E+03
 -0.412356078005E+03 -0.408951156987E+03 -0.405359970485E+03 -0.401574591895E+03 -0.397587041349E+03
 -0.393389334476E+03 -0.388973542239E+03 -0.384331864363E+03 -0.379456719483E+03 -0.374340855857E+03
 -0.368977487258E+03 -0.363360459480E+03 -0.357484453602E+03 -0.351345232629E+03 -0.344939937937E+03
 -0.338267440763E+03 -0.331328750964E+03 -0.324127479688E+03 -0.316670343513E+03 -0.308967684542E+03
 -0.301033964748E+03 -0.292888177458E+03 -0.284554113263E+03 -0.276060436081E+03 -0.267440576955E+03
 -0.258732510079E+03 -0.249978413328E+03 -0.241223808901E+03 -0.232515003596E+03 -0.223893568091E+03
 -0.215389836334E+03 -0.207023864835E+03 -0.198852199898E+03 -0.191619106456E+03 -0.184931793220E+03
 -0.178795192934E+03 -0.173244510540E+03 -0.168283089341E+03 -0.163899384215E+03 -0.159033434529E+03
 -0.154024433370E+03 -0.149173413193E+03 -0.144475280107E+03 -0.139925174878E+03 -0.135518410029E+03
 -0.131250455283E+03 -0.127116925764E+03 -0.123113583544E+03 -0.119236322930E+03 -0.115481172864E+03
 -0.111844284936E+03 -0.108321934566E+03 -0.104910514501E+03 -0.101606530999E+03 -0.984066005812E+02
 -0.953074463484E+02 -0.923058945952E+02 -0.893988715566E+02 -0.865834002264E+02 -0.838565973244E+02
 -0.812156703750E+02 -0.786579147596E+02 -0.761807111759E+02 -0.737815226499E+02 -0.714578923054E+02
 -0.692074405460E+02 -0.670278628018E+02 -0.649169270777E+02 -0.628724716874E+02 -0.608924030307E+02
 -0.589746934241E+02 -0.571173790314E+02 -0.553185578409E+02 -0.535763877297E+02 -0.518890845675E+02
 -0.502549204053E+02 -0.486722217029E+02 -0.471393676226E+02 -0.456547883711E+02 -0.442169635945E+02
 -0.428244208221E+02 -0.414757339588E+02 -0.401695218250E+02 -0.389044467415E+02 -0.376792131592E+02
 -0.364925663319E+02 -0.353432910312E+02 -0.342302103011E+02 -0.331521842527E+02
 pspotential valence only
 -0.318333968406E+03 -0.318335389592E+03 -0.318336766012E+03 -0.318338099073E+03 -0.318339390143E+03
 -0.318340640541E+03 -0.318341851548E+03 -0.318343024405E+03 -0.318344160312E+03 -0.318345260430E+03
 -0.318346325889E+03 -0.318347357776E+03 -0.318348357149E+03 -0.318349325030E+03 -0.318350262411E+03
 -0.318351170250E+03 -0.318352049477E+03 -0.318352900991E+03 -0.318353725663E+03 -0.318354524338E+03
 -0.318355297832E+03 -0.318356046935E+03 -0.318356772416E+03 -0.318357475015E+03 -0.318358155450E+03
 -0.318358814419E+03 -0.318359452593E+03 -0.318360070625E+03 -0.318360669147E+03 -0.318361248770E+03
 -0.318361810085E+03 -0.318362353667E+03 -0.318362880069E+03 -0.318363389829E+03 -0.318363883467E+03
 -0.318364361486E+03 -0.318364824373E+03 -0.318365272600E+03 -0.318365706622E+03 -0.318366126881E+03
 -0.318366533805E+03 -0.318366927807E+03 -0.318367309286E+03 -0.318367678630E+03 -0.318368036213E+03
 -0.318368382397E+03 -0.318368717530E+03 -0.318369041953E+03 -0.318369355992E+03 -0.318369659962E+03
 -0.318369954169E+03 -0.318370238908E+03 -0.318370514464E+03 -0.318370781112E+03 -0.318371039117E+03
 -0.318371288735E+03 -0.318371530213E+03 -0.318371763788E+03 -0.318371989691E+03 -0.318372208142E+03
 -0.318372419352E+03 -0.318372623527E+03 -0.318372820863E+03 -0.318373011548E+03 -0.318373195762E+03
 -0.318373373678E+03 -0.318373545463E+03 -0.318373711274E+03 -0.318373871262E+03 -0.318374025571E+03
 -0.318374174338E+03 -0.318374317691E+03 -0.318374455753E+03 -0.318374588640E+03 -0.318374716460E+03
 -0.318374839313E+03 -0.318374957295E+03 -0.318375070493E+03 -0.318375178986E+03 -0.318375282847E+03
 -0.318375382142E+03 -0.318375476930E+03 -0.318375567260E+03 -0.318375653176E+03 -0.318375734713E+03
 -0.318375811899E+03 -0.318375884752E+03 -0.318375953284E+03 -0.318376017497E+03 -0.318376077383E+03
 -0.318376132928E+03 -0.318376184104E+03 -0.318376230877E+03 -0.318376273201E+03 -0.318376311019E+03
 -0.318376344264E+03 -0.318376372856E+03 -0.318376396703E+03 -0.318376415700E+03 -0.318376429730E+03
 -0.318376438660E+03 -0.318376442342E+03 -0.318376440615E+03 -0.318376433297E+03 -0.318376420194E+03
 -0.318376401088E+03 -0.318376375745E+03 -0.318376343909E+03 -0.318376305303E+03 -0.318376259627E+03
 -0.318376206556E+03 -0.318376145738E+03 -0.318376076795E+03 -0.318375999320E+03 -0.318375912874E+03
 -0.318375816984E+03 -0.318375711146E+03 -0.318375594813E+03 -0.318375467405E+03 -0.318375328294E+03
 -0.318375176811E+03 -0.318375012238E+03 -0.318374833808E+03 -0.318374640698E+03 -0.318374432029E+03
 -0.318374206860E+03 -0.318373964188E+03 -0.318373702937E+03 -0.318373421959E+03 -0.318373120029E+03
 -0.318372795836E+03 -0.318372447983E+03 -0.318372074976E+03 -0.318371675220E+03 -0.318371247014E+03
 -0.318370788543E+03 -0.318370297866E+03 -0.318369772918E+03 -0.318369211489E+03 -0.318368611227E+03
 -0.318367969620E+03 -0.318367283987E+03 -0.318366551471E+03 -0.318365769024E+03 -0.318364933393E+03
 -0.318364041111E+03 -0.318363088479E+03 -0.318362071552E+03 -0.318360986126E+03 -0.318359827714E+03
 -0.318358591534E+03 -0.318357272485E+03 -0.318355865130E+03 -0.318354363668E+03 -0.318352761919E+03
 -0.318351053289E+03 -0.318349230751E+03 -0.318347286810E+03 -0.318345213476E+03 -0.318343002232E+03
 -0.318340643997E+03 -0.318338129087E+03 -0.318335447181E+03 -0.318332587275E+03 -0.318329537637E+03
 -0.318326285760E+03 -0.318322818312E+03 -0.318319121079E+03 -0.318315178909E+03 -0.318310975650E+03
 -0.318306494082E+03 -0.318301715852E+03 -0.318296621392E+03 -0.318291189844E+03 -0.318285398978E+03
 -0.318279225091E+03 -0.318272642924E+03 -0.318265625548E+03 -0.318258144262E+03 -0.318250168472E+03
 -0.318241665569E+03 -0.318232600798E+03 -0.318222937114E+03 -0.318212635033E+03 -0.318201652475E+03
 -0.318189944590E+03 -0.318177463579E+03 -0.318164158502E+03 -0.318149975070E+03 -0.318134855429E+03
 -0.318118737927E+03 -0.318101556863E+03 -0.318083242230E+03 -0.318063719427E+03 -0.318042908970E+03
 -0.318020726164E+03 -0.317997080774E+03 -0.317971876663E+03 -0.317945011409E+03 -0.317916375902E+03
 -0.317885853911E+03 -0.317853321626E+03 -0.317818647173E+03 -0.317781690094E+03 -0.317742300800E+03
 -0.317700319988E+03 -0.317655578019E+03 -0.317607894268E+03 -0.317557076421E+03 -0.317502919742E+03
 -0.317445206286E+03 -0.317383704076E+03 -0.317318166217E+03 -0.317248329975E+03 -0.317173915791E+03
 -0.317094626238E+03 -0.317010144929E+03 -0.316920135352E+03 -0.316824239651E+03 -0.316722077328E+03
 -0.316613243891E+03 -0.316497309415E+03 -0.316373817040E+03 -0.316242281385E+03 -0.316102186890E+03
 -0.315952986069E+03 -0.315794097693E+03 -0.315624904877E+03 -0.315444753091E+03 -0.315252948087E+03
 -0.315048753738E+03 -0.314831389800E+03 -0.314600029587E+03 -0.314353797577E+03 -0.314091766940E+03
 -0.313812956997E+03 -0.313516330627E+03 -0.313200791614E+03 -0.312865181960E+03 -0.312508279172E+03
 -0.312128793535E+03 -0.311725365394E+03 -0.311296562471E+03 -0.310840877236E+03 -0.310356724359E+03
 -0.309842438292E+03 -0.309296271005E+03 -0.308716389925E+03 -0.308100876131E+03 -0.307447722861E+03
 -0.306754834387E+03 -0.306020025340E+03 -0.305241020554E+03 -0.304415455515E+03 -0.303540877515E+03
 -0.302614747610E+03 -0.301634443494E+03 -0.300597263410E+03 -0.299500431229E+03 -0.298341102835E+03
 -0.297116373960E+03 -0.295823289634E+03 -0.294458855398E+03 -0.293020050466E+03 -0.291503842995E+03
 -0.289907207654E+03 -0.288227145668E+03 -0.286460707527E+03 -0.284605018529E+03 -0.282657307363E+03
 -0.280614937893E+03 -0.278475444331E+03 -0.276236569968E+03 -0.273896309651E+03 -0.271452956153E+03
 -0.268905150634E+03 -0.266251937335E+03 -0.263492822695E+03 -0.260627838990E+03 -0.257657612599E+03
 -0.254583436792E+03 -0.251407348697E+03 -0.248132209537E+03 -0.244761786234E+03 -0.241300830843E+03
 -0.237755151501E+03 -0.234131664302E+03 -0.230438409178E+03 -0.226684504029E+03 -0.222880000347E+03
 -0.219035592242E+03 -0.215162124234E+03 -0.211269852071E+03 -0.207367450743E+03 -0.203460845222E+03
 -0.199552033478E+03 -0.195638050979E+03 -0.191709858915E+03 -0.187750187919E+03 -0.183729283155E+03
 -0.179600681899E+03 -0.175305490880E+03 -0.170823350083E+03 -0.166828346678E+03 -0.162868814457E+03
 -0.158905871269E+03 -0.154948274985E+03 -0.150990803232E+03 -0.147030053004E+03 -0.143148531904E+03
 -0.139339913985E+03 -0.135595438723E+03 -0.131918009624E+03 -0.128310095815E+03 -0.124773739542E+03
 -0.121310599283E+03 -0.117921969807E+03 -0.114608788961E+03 -0.111371625507E+03 -0.108210653296E+03
 -0.105125625244E+03 -0.102115851444E+03 -0.991802024645E+02 -0.963171465436E+02 -0.935248312638E+02
 -0.908012074797E+02 -0.881441833276E+02 -0.855517867278E+02 -0.830223136262E+02 -0.805544395647E+02
 -0.781472822149E+02 -0.758004098150E+02 -0.735137979336E+02 -0.712877412014E+02 -0.691227290689E+02
 -0.670192964203E+02 -0.649778626256E+02 -0.629985761530E+02 -0.610811846697E+02 -0.592249501336E+02
 -0.574286227190E+02 -0.556904769344E+02 -0.540084009330E+02 -0.523800200946E+02 -0.508028317385E+02
 -0.492743299334E+02 -0.477921059174E+02 -0.463539176134E+02 -0.449577285851E+02 -0.436017212257E+02
 -0.422842909094E+02 -0.410040278892E+02 -0.397596926833E+02 -0.385501892404E+02 -0.373745387517E+02
 -0.362318557911E+02 -0.351213275950E+02 -0.340421967054E+02 -0.329937468453E+02
 core charge-density (pseudized)
  0.183813367724E-07  0.195962033965E-07  0.208913634679E-07  0.222721237727E-07  0.237441418354E-07
  0.253134490998E-07  0.269864756421E-07  0.287700765177E-07  0.306715598490E-07  0.326987167697E-07
  0.348598533480E-07  0.371638246201E-07  0.396200708726E-07  0.422386563231E-07  0.450303103574E-07
  0.480064714922E-07  0.511793342426E-07  0.545618990887E-07  0.581680257428E-07  0.620124899390E-07
  0.661110439744E-07  0.704804812533E-07  0.751387050955E-07  0.801048020941E-07  0.853991203202E-07
  0.910433526971E-07  0.970606258850E-07  0.103475595040E-06  0.110314544834E-06  0.117605497158E-06
  0.125378325933E-06  0.133664879520E-06  0.142499111212E-06  0.151917218354E-06  0.161957790662E-06
  0.172661968332E-06  0.184073610616E-06  0.196239475524E-06  0.209209411413E-06  0.223036561233E-06
  0.237777580277E-06  0.253492868315E-06  0.270246817080E-06  0.288108074103E-06  0.307149823985E-06
  0.327450088271E-06  0.349092045122E-06  0.372164370139E-06  0.396761599692E-06  0.422984518275E-06
  0.450940571456E-06  0.480744306122E-06  0.512517839820E-06  0.546391361119E-06  0.582503663037E-06
  0.621002711728E-06  0.662046252756E-06  0.705802457430E-06  0.752450611864E-06  0.802181851578E-06
  0.855199944644E-06  0.911722126596E-06  0.971979990519E-06  0.103622043597E-05  0.110470668059E-05
  0.117771933862E-05  0.125555757066E-05  0.133854030941E-05  0.142700756647E-05  0.152132182545E-05
  0.162186952719E-05  0.172906265312E-05  0.184334041326E-05  0.196517104583E-05  0.209505373569E-05
  0.223352065971E-05  0.238113916718E-05  0.253851410441E-05  0.270629029297E-05  0.288515517159E-05
  0.307584161287E-05  0.327913092591E-05  0.349585605758E-05  0.372690500519E-05  0.397322445483E-05
  0.423582366008E-05  0.451577857706E-05  0.481423627278E-05  0.513241962482E-05  0.547163233153E-05
  0.583326425343E-05  0.621879710753E-05  0.662981053795E-05  0.706798858778E-05  0.753512659854E-05
  0.803313856562E-05  0.856406497980E-05  0.913008118689E-05  0.973350629985E-05  0.103768126998E-04
  0.110626361648E-04  0.117937866679E-04  0.125732598892E-04  0.134042494873E-04  0.142901601834E-04
  0.152346217082E-04  0.162415036716E-04  0.173149314142E-04  0.184593029059E-04  0.196793067620E-04
  0.209799414485E-04  0.223665357565E-04  0.238447706299E-04  0.254207024339E-04  0.271007877620E-04
  0.288919098801E-04  0.308014069191E-04  0.328371019284E-04  0.350073349148E-04  0.373209969984E-04
  0.397875668227E-04  0.424171493705E-04  0.452205173433E-04  0.482091552721E-04  0.513953065415E-04
  0.547920235196E-04  0.584132209955E-04  0.622737331469E-04  0.663893742669E-04  0.707770034998E-04
  0.754545938493E-04  0.804413057421E-04  0.857575654442E-04  0.914251486530E-04  0.974672696041E-04
  0.103908676056E-03  0.110775750539E-03  0.118096618287E-03  0.125901262277E-03  0.134221645864E-03
  0.143091843493E-03  0.152548180029E-03  0.162629379268E-03  0.173376722237E-03  0.184834215911E-03
  0.197048773057E-03  0.210070403904E-03  0.223952420438E-03  0.238751654145E-03  0.254528688067E-03
  0.271348104133E-03  0.289278746743E-03  0.308394003679E-03  0.328772105475E-03  0.350496444443E-03
  0.373655914645E-03  0.398345274172E-03  0.424665531185E-03  0.452724355258E-03  0.482636515680E-03
  0.514524348441E-03  0.548518253791E-03  0.584757226328E-03  0.623389419727E-03  0.664572748347E-03
  0.708475528082E-03  0.755277158998E-03  0.805168852419E-03  0.858354405325E-03  0.915051025074E-03
  0.975490207675E-03  0.103991867300E-02  0.110859936055E-02  0.118181248967E-02  0.125985668810E-02
  0.134305019346E-02  0.143173213187E-02  0.152626387891E-02  0.162703050765E-02  0.173444232946E-02
  0.184893653318E-02  0.197097892861E-02  0.210106580083E-02  0.223972588198E-02  0.238752244754E-02
  0.254505554464E-02  0.271296436021E-02  0.289192973711E-02  0.308267684702E-02  0.328597802903E-02
  0.350265580344E-02  0.373358607066E-02  0.397970150559E-02  0.424199515812E-02  0.452152427098E-02
  0.481941432659E-02  0.513686333471E-02  0.547514637332E-02  0.583562039541E-02  0.621972931455E-02
  0.662900938247E-02  0.706509487196E-02  0.752972407866E-02  0.802474565493E-02  0.855212528932E-02
  0.911395274451E-02  0.971244926633E-02  0.103499753759E-01  0.110290390555E-01  0.117523043389E-01
  0.125226003134E-01  0.133429305413E-01  0.142164829042E-01  0.151466398715E-01  0.161369891929E-01
  0.171913350061E-01  0.183137093519E-01  0.195083840782E-01  0.207798831117E-01  0.221329950645E-01
  0.235727861378E-01  0.251046132720E-01  0.267341374787E-01  0.284673372818E-01  0.303105221718E-01
  0.322703459647E-01  0.343538199315E-01  0.365683255441E-01  0.389216266529E-01  0.414218808820E-01
  0.440776499920E-01  0.468979089227E-01  0.498920531795E-01  0.530699041818E-01  0.564417121324E-01
  0.600181559056E-01  0.638103393817E-01  0.678297835781E-01  0.720884138431E-01  0.765985412820E-01
  0.813728374847E-01  0.864243015085E-01  0.917662179510E-01  0.974121048126E-01  0.103375649710E+00
  0.109670632847E+00  0.116310835003E+00  0.123309928609E+00  0.130681349850E+00  0.138438149517E+00
  0.146592820211E+00  0.155157097293E+00  0.164141730869E+00  0.173556225942E+00  0.183408547800E+00
  0.193704789637E+00  0.204448799434E+00  0.215641763235E+00  0.227281742129E+00  0.239363160599E+00
  0.251876244392E+00  0.264806406769E+00  0.278133582912E+00  0.291831513544E+00  0.305866980369E+00
  0.320198997955E+00  0.334777969184E+00  0.349544814397E+00  0.364430088035E+00  0.379353100963E+00
  0.394221071762E+00  0.408928336248E+00  0.423355651316E+00  0.437369636873E+00  0.450822408181E+00
  0.463551460181E+00  0.475379875178E+00  0.486116935324E+00  0.495559231168E+00  0.503492366553E+00
  0.509693367402E+00  0.513933906375E+00  0.515984455417E+00  0.515619472085E+00  0.512623710872E+00
  0.506799724832E+00  0.497976582470E+00  0.486019766454E+00  0.470842140374E+00  0.452415763537E+00
  0.430784197908E+00  0.406074782831E+00  0.378510150637E+00  0.348418020662E+00  0.316238045420E+00
  0.282524200926E+00  0.247940931297E+00  0.213251003105E+00  0.179292837534E+00  0.146945022366E+00
  0.117075832303E+00  0.904759933771E-01  0.677737193679E-01  0.493323409529E-01  0.351327588737E-01
  0.246590625299E-01  0.170797104032E-01  0.116701752410E-01  0.786341895004E-02  0.522298486045E-02
  0.341843603058E-02  0.220372452594E-02  0.139868472073E-02  0.873611106101E-03  0.536718842304E-03
  0.324184222481E-03  0.192411258034E-03  0.112158221408E-03  0.641731641209E-04  0.360203926549E-04
  0.198224993586E-04  0.106885118356E-04  0.564352626522E-05  0.291592170801E-05  0.147333899245E-05
  0.727499130974E-06  0.350799047062E-06  0.165068745628E-06  0.757402507108E-07  0.338616879281E-07
  0.147388469367E-07  0.624067911016E-08  0.256826676381E-08  0.102636010638E-08  0.397929397553E-09
  0.149533054094E-09  0.544069042620E-10  0.191469376411E-10  0.651025742685E-11  0.213627925874E-11
  0.675723953315E-12  0.205781280179E-12  0.602594813688E-13  0.169461005300E-13  0.457051522974E-14
  0.118065146867E-14  0.291697842110E-15  0.688297851293E-16  0.154885292348E-16  0.331875039885E-17
  0.676067272101E-18  0.130724067682E-18  0.239523978657E-19  0.415168833372E-20  0.679537229887E-21
  0.104838287592E-21  0.152168240343E-22  0.207385183590E-23  0.264853117444E-24
 pseudo wavefunction
  0.162733236896E-11  0.179130085418E-11  0.197179065030E-11  0.217046642912E-11  0.238916059320E-11
  0.262989017624E-11  0.289487544639E-11  0.318656038391E-11  0.350763522222E-11  0.386106126014E-11
  0.425009817415E-11  0.467833408269E-11  0.514971863960E-11  0.566859946215E-11  0.623976222942E-11
  0.686847482100E-11  0.756053590307E-11  0.832232840991E-11  0.916087841425E-11  0.100839199293E-10
  0.110999662401E-10  0.122183884221E-10  0.134495017718E-10  0.148046609448E-10  0.162963646813E-10
  0.179383710826E-10  0.197458245032E-10  0.217353952283E-10  0.239254332255E-10  0.263361373871E-10
  0.289897418270E-10  0.319107209470E-10  0.351260151661E-10  0.386652793944E-10  0.425611565421E-10
  0.468495785875E-10  0.515700979809E-10  0.567662524389E-10  0.624859664967E-10  0.687819935192E-10
  0.757124022489E-10  0.833411123788E-10  0.917384840874E-10  0.100981966976E-09  0.111156814393E-09
  0.122356869728E-09  0.134685431941E-09  0.148256208290E-09  0.163194363066E-09  0.179637671987E-09
  0.197737792917E-09  0.217661664611E-09  0.239593046406E-09  0.263734213043E-09  0.290307820262E-09
  0.319558958363E-09  0.351757412695E-09  0.387200151898E-09  0.426214066861E-09  0.469158985658E-09
  0.516430992255E-09  0.568466079620E-09  0.625744170902E-09  0.688793545783E-09  0.758195712833E-09
  0.834590772778E-09  0.918683322182E-09  0.101124895196E-08  0.111314140069E-08  0.122530042866E-08
  0.134876048529E-08  0.148466024994E-08  0.163425313388E-08  0.179891884063E-08  0.198017609089E-08
  0.217969662975E-08  0.239932064524E-08  0.264107374029E-08  0.290718561493E-08  0.320011063075E-08
  0.352255044743E-08  0.387747894008E-08  0.426816962720E-08  0.469822586217E-08  0.517161406687E-08
  0.569270031369E-08  0.626629059359E-08  0.689767514133E-08  0.759267722688E-08  0.835770686291E-08
  0.919981992354E-08  0.101267832199E-07  0.111471461324E-07  0.122703194602E-07  0.135066622157E-07
  0.148675771638E-07  0.163656159873E-07  0.180145950482E-07  0.198297228130E-07  0.218277401165E-07
  0.240270745577E-07  0.264480104520E-07  0.291128759068E-07  0.320462487459E-07  0.352751831811E-07
  0.388294593221E-07  0.427418578253E-07  0.470484622138E-07  0.517889916571E-07  0.570071672789E-07
  0.627511153709E-07  0.690738112303E-07  0.760335677143E-07  0.836945730165E-07  0.921274826230E-07
  0.101410070908E-06  0.111627948374E-06  0.122875351155E-06  0.135256010057E-06  0.148884107147E-06
  0.163885328721E-06  0.180398024342E-06  0.198574482648E-06  0.218582335683E-06  0.240606104703E-06
  0.264848901703E-06  0.291534302349E-06  0.320908407584E-06  0.353242112907E-06  0.388833606241E-06
  0.428011117416E-06  0.471135944606E-06  0.518605785602E-06  0.570858404632E-06  0.628375668517E-06
  0.691687989340E-06  0.761379214577E-06  0.838092009733E-06  0.922533783073E-06  0.101548320703E-05
  0.111779739635E-05  0.123041980909E-05  0.135438894323E-05  0.149084790901E-05  0.164105496503E-05
  0.180639511528E-05  0.198839287368E-05  0.218872631375E-05  0.240924253259E-05  0.265197467161E-05
  0.291916065042E-05  0.321326378639E-05  0.353699548937E-05  0.389334024036E-05  0.428558308365E-05
  0.471733988530E-05  0.519259063583E-05  0.571571610316E-05  0.629153817251E-05  0.692536424352E-05
  0.762303609228E-05  0.839098364657E-05  0.923628416761E-05  0.101667273812E-04  0.111908871548E-04
  0.123182003783E-04  0.135590537697E-04  0.149248794015E-04  0.164282598209E-04  0.180830437266E-04
  0.199044732574E-04  0.219093240576E-04  0.241160593965E-04  0.265449997483E-04  0.292185093781E-04
  0.321612016345E-04  0.354001648160E-04  0.389652106656E-04  0.428891477521E-04  0.472080822173E-04
  0.519617486168E-04  0.571938738505E-04  0.629525774732E-04  0.692908120020E-04  0.762668471912E-04
  0.839448026363E-04  0.923952334966E-04  0.101695774592E-03  0.111931848649E-03  0.123197445022E-03
  0.135595975848E-03  0.149241217249E-03  0.164258343948E-03  0.180785066455E-03  0.198972880888E-03
  0.218988442415E-03  0.241015074398E-03  0.265254426432E-03  0.291928295742E-03  0.321280627761E-03
  0.353579713189E-03  0.389120600450E-03  0.428227744230E-03  0.471257912668E-03  0.518603377846E-03
  0.570695416477E-03  0.628008150101E-03  0.691062756710E-03  0.760432088596E-03  0.836745734193E-03
  0.920695565039E-03  0.101304181244E-02  0.111461972217E-02  0.122634683973E-02  0.134923098261E-02
  0.148437896099E-02  0.163300611278E-02  0.179644672415E-02  0.197616541182E-02  0.217376954922E-02
  0.239102282398E-02  0.262986002045E-02  0.289240312659E-02  0.318097887095E-02  0.349813780109E-02
  0.384667502090E-02  0.422965270948E-02  0.465042454962E-02  0.511266219787E-02  0.562038393203E-02
  0.617798561357E-02  0.679027410365E-02  0.746250326925E-02  0.820041271248E-02  0.901026934835E-02
  0.989891194548E-02  0.108737987282E-01  0.119430581164E-01  0.131155426520E-01  0.144008861214E-01
  0.158095638412E-01  0.173529560100E-01  0.190434139629E-01  0.208943290749E-01  0.229202039514E-01
  0.251367254213E-01  0.275608386905E-01  0.302108218364E-01  0.331063596110E-01  0.362686152698E-01
  0.397202988559E-01  0.434857300308E-01  0.475908931605E-01  0.520634819204E-01  0.569329301839E-01
  0.622304253919E-01  0.679888999653E-01  0.742429956208E-01  0.810289946697E-01  0.883847115404E-01
  0.963493368505E-01  0.104963225395E+00  0.114267618416E+00  0.124304289495E+00  0.135115102418E+00
  0.146741468412E+00  0.159223689335E+00  0.172600172766E+00  0.186906504605E+00  0.202174364839E+00
  0.218430272767E+00  0.235694149294E+00  0.253977686187E+00  0.273282515633E+00  0.293598178340E+00
  0.314899895092E+00  0.337146155439E+00  0.360276148416E+00  0.384207074210E+00  0.408831392880E+00
  0.434014086706E+00  0.459590036884E+00  0.485361642758E+00  0.511096842502E+00  0.536527727282E+00
  0.561349975260E+00  0.585223365435E+00  0.607773661478E+00  0.628596178598E+00  0.647261357090E+00
  0.663322658173E+00  0.676327063248E+00  0.685828387704E+00  0.691403504620E+00  0.692671401480E+00
  0.689314754202E+00  0.681103389123E+00  0.667918611411E+00  0.649776911067E+00  0.626851030112E+00
  0.599485817458E+00  0.568205763337E+00  0.533710671759E+00  0.496855706796E+00  0.458612179255E+00
  0.420006097397E+00  0.382032881859E+00  0.345548933048E+00  0.311144094075E+00  0.279024360042E+00
  0.249175209120E+00  0.221569021970E+00  0.196160726562E+00  0.172889425508E+00  0.151680553778E+00
  0.132448017937E+00  0.115096292636E+00  0.995224504614E-01  0.856181020797E-01  0.732712260193E-01
  0.623678703016E-01  0.527937122259E-01  0.444354667492E-01  0.371821382927E-01  0.309261144572E-01
  0.255641027658E-01  0.209979129342E-01  0.171350875214E-01  0.138893837568E-01  0.111811095691E-01
  0.893731797782E-02  0.709186619537E-02  0.558534881445E-02  0.436491779246E-02  0.338400500053E-02
  0.260196538040E-02  0.198365996389E-02  0.149899806782E-02  0.112245697095E-02  0.832595505643E-03
  0.611575517234E-03  0.444702347966E-03  0.319992669109E-03  0.227775349857E-03  0.160328771970E-03
  0.111556142759E-03  0.766989142029E-04  0.520873229869E-04  0.349262511858E-04  0.231140074324E-04
  0.150912021346E-04  0.971661456450E-05  0.616681185780E-05  0.385626942160E-05  0.237484483312E-05
  0.143965370385E-05  0.858662663191E-06  0.503626277656E-06  0.290326935992E-06
 ae wavefunction
  0.826323644943E-07  0.899803859812E-07  0.979466244684E-07  0.106585968436E-06  0.115957971624E-06
  0.126127268255E-06  0.137164024040E-06  0.149144426144E-06  0.162151215608E-06  0.176274266012E-06
  0.191611212513E-06  0.208268135760E-06  0.226360305556E-06  0.246012989627E-06  0.267362333262E-06
  0.290556316161E-06  0.315755793361E-06  0.343135627749E-06  0.372885922280E-06  0.405213360844E-06
  0.440342667431E-06  0.478518194151E-06  0.520005649638E-06  0.565093980329E-06  0.614097418283E-06
  0.667357710455E-06  0.725246545604E-06  0.788168196519E-06  0.856562396866E-06  0.930907473611E-06
  0.101172375795E-05  0.109957729969E-05  0.119508391229E-05  0.129891357819E-05  0.141179524689E-05
  0.153452206082E-05  0.166795704766E-05  0.181303932088E-05  0.197079083422E-05  0.214232373994E-05
  0.232884840521E-05  0.253168214574E-05  0.275225874132E-05  0.299213880368E-05  0.325302107341E-05
  0.353675472953E-05  0.384535280320E-05  0.418100679485E-05  0.454610260319E-05  0.494323788452E-05
  0.537524097101E-05  0.584519148853E-05  0.635644282727E-05  0.691264663188E-05  0.751777949314E-05
  0.817617203938E-05  0.889254064365E-05  0.967202198202E-05  0.105202106993E-04  0.114432004616E-04
  0.124476287001E-04  0.135407253769E-04  0.147303661340E-04  0.160251302186E-04  0.174343636117E-04
  0.189682478251E-04  0.206378748746E-04  0.224553289796E-04  0.244337755871E-04  0.265875583753E-04
  0.289323049424E-04  0.314850419524E-04  0.342643205760E-04  0.372903531350E-04  0.405851619393E-04
  0.441727413896E-04  0.480792345110E-04  0.523331251803E-04  0.569654474212E-04  0.620100132515E-04
  0.675036606976E-04  0.734865237215E-04  0.800023259534E-04  0.870987002792E-04  0.948275365004E-04
  0.103245359464E-03  0.112413740256E-03  0.122399743265E-03  0.133276412130E-03  0.145123297856E-03
  0.158027032607E-03  0.172081952981E-03  0.187390776849E-03  0.204065338187E-03  0.222227384601E-03
  0.242009442667E-03  0.263555756547E-03  0.287023305730E-03  0.312582908212E-03  0.340420415826E-03
  0.370738008938E-03  0.403755598199E-03  0.439712341559E-03  0.478868285311E-03  0.521506138465E-03
  0.567933190356E-03  0.618483382004E-03  0.673519542335E-03  0.733435801045E-03  0.798660190527E-03
  0.869657449934E-03  0.946932045122E-03  0.103103141889E-02  0.112254948653E-02  0.122213039249E-02
  0.133047254424E-02  0.144833294048E-02  0.157653181076E-02  0.171595758468E-02  0.186757220849E-02
  0.203241682791E-02  0.221161785544E-02  0.240639344096E-02  0.261806036381E-02  0.284804136445E-02
  0.309787293282E-02  0.336921356990E-02  0.366385253744E-02  0.398371910917E-02  0.433089233494E-02
  0.470761132628E-02  0.511628606900E-02  0.555950876448E-02  0.604006569692E-02  0.656094961836E-02
  0.712537263731E-02  0.773677958942E-02  0.839886186075E-02  0.911557162435E-02  0.989113644049E-02
  0.107300741587E-01  0.116372080459E-01  0.126176820503E-01  0.136769760927E-01  0.148209212584E-01
  0.160557147437E-01  0.173879343831E-01  0.188245525663E-01  0.203729493172E-01  0.220409242859E-01
  0.238367073673E-01  0.257689676273E-01  0.278468201803E-01  0.300798306208E-01  0.324780165670E-01
  0.350518458304E-01  0.378122306663E-01  0.407705175108E-01  0.439384715429E-01  0.473282553507E-01
  0.509524009193E-01  0.548237741004E-01  0.589555306840E-01  0.633610631627E-01  0.680539372658E-01
  0.730478173454E-01  0.783563796964E-01  0.839932129016E-01  0.899717042913E-01  0.963049116057E-01
  0.103005418955E+00  0.110085176185E+00  0.117555320782E+00  0.125425981527E+00  0.133706063163E+00
  0.142403011496E+00  0.151522558493E+00  0.161068447170E+00  0.171042136331E+00  0.181442485496E+00
  0.192265420777E+00  0.203503582798E+00  0.215145958296E+00  0.227177497512E+00  0.239578720075E+00
  0.252325312723E+00  0.265387722877E+00  0.278730752812E+00  0.292313159956E+00  0.306087269624E+00
  0.319998607312E+00  0.333985558530E+00  0.347979064894E+00  0.361902366038E+00  0.375670797544E+00
  0.389191655734E+00  0.402364140522E+00  0.415079387691E+00  0.427220601709E+00  0.438663299570E+00
  0.449275675256E+00  0.458919093610E+00  0.467448722378E+00  0.474714312469E+00  0.480561139260E+00
  0.484831121225E+00  0.487364134512E+00  0.487999541647E+00  0.486577946559E+00  0.482943176403E+00
  0.476944474657E+00  0.468438877959E+00  0.457293745779E+00  0.443389416349E+00  0.426621964601E+00
  0.406906034476E+00  0.384177710645E+00  0.358397388084E+00  0.329552593308E+00  0.297660707543E+00
  0.262771538351E+00  0.224969681775E+00  0.184376612328E+00  0.141152434036E+00  0.954972228046E-01
  0.476518896130E-01 -0.210150434567E-02 -0.534400449058E-01 -0.106000931551E+00 -0.159383160018E+00
 -0.213149952727E+00 -0.266831945867E+00 -0.319931104477E+00 -0.371925282645E+00 -0.422273290387E+00
 -0.470420317229E+00 -0.515803656148E+00 -0.557858898148E+00 -0.596027003015E+00 -0.629762544167E+00
 -0.658542781186E+00 -0.681876666541E+00 -0.699313144818E+00 -0.710448702926E+00 -0.714934351381E+00
 -0.712482079299E+00 -0.702870636656E+00 -0.685950419931E+00 -0.661647276133E+00 -0.629965133871E+00
 -0.590987453038E+00 -0.544877529493E+00 -0.491877704519E+00 -0.432307524784E+00 -0.366560889412E+00
 -0.295102212619E+00 -0.218461627106E+00 -0.137229257169E+00 -0.520486028567E-01  0.363909041347E-01
  0.127362086621E+00  0.220108836693E+00  0.313855410781E+00  0.407816009094E+00  0.501204370099E+00
  0.593243037746E+00  0.683171953890E+00  0.770256201765E+00  0.853793097963E+00  0.933119198037E+00
  0.100761778129E+01  0.107672688885E+01  0.113994735532E+01  0.119685001375E+01  0.124708146346E+01
  0.129036815040E+01  0.132651874485E+01  0.135542486901E+01  0.137706023271E+01  0.139147825192E+01
  0.139880826583E+01  0.139925051618E+01  0.139307009556E+01  0.138059008749E+01  0.136218412221E+01
  0.133826856691E+01  0.130929454002E+01  0.127573992682E+01  0.123810154288E+01  0.119688758082E+01
  0.115261044170E+01  0.110578004728E+01  0.105689770221E+01  0.100645056502E+01  0.954906760226E+00
  0.902711161786E+00  0.850281856675E+00  0.798007295007E+00  0.746244120529E+00  0.695315665520E+00
  0.645511079464E+00  0.597085043514E+00  0.550258004810E+00  0.505216853473E+00  0.462115957752E+00
  0.421078482821E+00  0.382197926976E+00  0.345539822892E+00  0.311143568387E+00  0.279024360042E+00
  0.249175209120E+00  0.221569021970E+00  0.196160726562E+00  0.172889425508E+00  0.151680553778E+00
  0.132448017937E+00  0.115096292636E+00  0.995224504614E-01  0.856181020797E-01  0.732712260193E-01
  0.623678703016E-01  0.527937122259E-01  0.444354667492E-01  0.371821382927E-01  0.309261144572E-01
  0.255641027658E-01  0.209979129342E-01  0.171350875214E-01  0.138893837568E-01  0.111811095691E-01
  0.893731797782E-02  0.709186619537E-02  0.558534881445E-02  0.436491779246E-02  0.338400500053E-02
  0.260196538040E-02  0.198365996389E-02  0.149899806782E-02  0.112245697095E-02  0.832595505643E-03
  0.611575517234E-03  0.444702347966E-03  0.319992669109E-03  0.227775349857E-03  0.160328771970E-03
  0.111556142759E-03  0.766989142029E-04  0.520873229869E-04  0.349262511858E-04  0.231140074324E-04
  0.150912021346E-04  0.971661456450E-05  0.616681185780E-05  0.385626942160E-05  0.237484483312E-05
  0.143965370385E-05  0.858662663191E-06  0.503626277656E-06  0.290326935992E-06
 pseudo wavefunction
 -0.249431817991E-12 -0.274564334194E-12 -0.302229179151E-12 -0.332681507929E-12 -0.366202184777E-12
 -0.403100373563E-12 -0.443716389212E-12 -0.488424836462E-12 -0.537638064870E-12 -0.591809971944E-12
 -0.651440189477E-12 -0.717078691689E-12 -0.789330867680E-12 -0.868863104984E-12 -0.956408935712E-12
 -0.105277580197E-11 -0.115885250297E-11 -0.127561739249E-11 -0.140414740229E-11 -0.154562797475E-11
 -0.170136399632E-11 -0.187279183254E-11 -0.206149257575E-11 -0.226920662769E-11 -0.249784975128E-11
 -0.274953073986E-11 -0.302657086678E-11 -0.333152529466E-11 -0.366720664183E-11 -0.403671092331E-11
 -0.444344610561E-11 -0.489116353862E-11 -0.538399255462E-11 -0.592647855335E-11 -0.652362492457E-11
 -0.718093919472E-11 -0.790448382314E-11 -0.870093211661E-11 -0.957762977765E-11 -0.105426626545E-10
 -0.116049313173E-10 -0.127742331489E-10 -0.140613527063E-10 -0.154781611877E-10 -0.170377259213E-10
 -0.187544308855E-10 -0.206441093740E-10 -0.227241900266E-10 -0.250138575745E-10 -0.275342297828E-10
 -0.303085522197E-10 -0.333624126526E-10 -0.367239770448E-10 -0.404242493314E-10 -0.444973573703E-10
 -0.489808677048E-10 -0.539161320415E-10 -0.593486686381E-10 -0.653285821205E-10 -0.719110255990E-10
 -0.791567093473E-10 -0.871324607344E-10 -0.959118405756E-10 -0.105575821584E-09 -0.116213535186E-09
 -0.127923093575E-09 -0.140812494608E-09 -0.155000617866E-09 -0.170618321079E-09 -0.187809647027E-09
 -0.206733152043E-09 -0.227563368376E-09 -0.250492413894E-09 -0.275731763983E-09 -0.303514201971E-09
 -0.334095966079E-09 -0.367759112689E-09 -0.404814117730E-09 -0.445602740170E-09 -0.490501174030E-09
 -0.539923517979E-09 -0.594325594521E-09 -0.654209153984E-09 -0.720126502091E-09 -0.792685593790E-09
 -0.872555640316E-09 -0.960473281195E-09 -0.105724937812E-08 -0.116377649335E-08 -0.128103712157E-08
 -0.141011275118E-08 -0.155219383858E-08 -0.170859078730E-08 -0.188074603349E-08 -0.207024734887E-08
 -0.227884248421E-08 -0.250845528798E-08 -0.276120344919E-08 -0.303941802772E-08 -0.334566495240E-08
 -0.368276868512E-08 -0.405383826905E-08 -0.446229600122E-08 -0.491190899391E-08 -0.540682391579E-08
 -0.595160523317E-08 -0.655127730399E-08 -0.721137071265E-08 -0.793797327291E-08 -0.873778616905E-08
 -0.961818575303E-08 -0.105872915672E-07 -0.116540412199E-07 -0.128282728041E-07 -0.141208156189E-07
 -0.155435900300E-07 -0.171097173906E-07 -0.188336410344E-07 -0.207312594572E-07 -0.228200729148E-07
 -0.251193447869E-07 -0.276502791960E-07 -0.304362165169E-07 -0.335028485796E-07 -0.368784555472E-07
 -0.405941666533E-07 -0.446842472005E-07 -0.491864144629E-07 -0.541421854059E-07 -0.595972594235E-07
 -0.656019396202E-07 -0.722115965177E-07 -0.794871784558E-07 -0.874957733892E-07 -0.963112272523E-07
 -0.106014824584E-06 -0.116696037683E-06 -0.128453351177E-06 -0.141395169618E-06 -0.155640816422E-06
 -0.171321633378E-06 -0.188582190819E-06 -0.207581619590E-06 -0.228495077068E-06 -0.251515360705E-06
 -0.276854683930E-06 -0.304746630732E-06 -0.335448306876E-06 -0.369242707522E-06 -0.406441322978E-06
 -0.447387006518E-06 -0.492457130582E-06 -0.542067060311E-06 -0.596673976282E-06 -0.656781081478E-06
 -0.722942231064E-06 -0.795767027362E-06 -0.875926426689E-06 -0.964158909361E-06 -0.106127726931E-05
 -0.116817608539E-05 -0.128583994259E-05 -0.141535247830E-05 -0.155790633615E-05 -0.171481411807E-05
 -0.188752043457E-05 -0.207761516278E-05 -0.228684803291E-05 -0.251714467564E-05 -0.277062427625E-05
 -0.304961899539E-05 -0.335669533263E-05 -0.369467762592E-05 -0.406667389944E-05 -0.447610429292E-05
 -0.492673232871E-05 -0.542269929791E-05 -0.596856207417E-05 -0.656933469441E-05 -0.723053407833E-05
 -0.795823029495E-05 -0.875910182412E-05 -0.964049630399E-05 -0.106104973032E-04 -0.116779977080E-04
 -0.128527803714E-04 -0.141456067329E-04 -0.155683141852E-04 -0.171339230382E-04 -0.188567540083E-04
 -0.207525572537E-04 -0.228386540634E-04 -0.251340924206E-04 -0.276598177626E-04 -0.304388603923E-04
 -0.334965411174E-04 -0.368606968444E-04 -0.405619280051E-04 -0.446338698591E-04 -0.491134898965E-04
 -0.540414137587E-04 -0.594622822984E-04 -0.654251426254E-04 -0.719838762175E-04 -0.791976674301E-04
 -0.871315160015E-04 -0.958567974363E-04 -0.105451875442E-03 -0.116002770904E-03 -0.127603892214E-03
 -0.140358832081E-03 -0.154381236316E-03 -0.169795750412E-03 -0.186739050086E-03 -0.205360962291E-03
 -0.225825683522E-03 -0.248313102550E-03 -0.273020234960E-03 -0.300162777118E-03 -0.329976787294E-03
 -0.362720501768E-03 -0.398676293654E-03 -0.438152781997E-03 -0.481487098288E-03 -0.529047316955E-03
 -0.581235055447E-03 -0.638488248320E-03 -0.701284098039E-03 -0.770142203041E-03 -0.845627860797E-03
 -0.928355540074E-03 -0.101899251217E-02 -0.111826262540E-02 -0.122695020033E-02 -0.134590401514E-02
 -0.147604134027E-02 -0.161835196968E-02 -0.177390218129E-02 -0.194383854196E-02 -0.212939145161E-02
 -0.233187829636E-02 -0.255270605154E-02 -0.279337314098E-02 -0.305547031857E-02 -0.334068029057E-02
 -0.365077574181E-02 -0.398761536414E-02 -0.435313741060E-02 -0.474935021148E-02 -0.517831898839E-02
 -0.564214818669E-02 -0.614295841405E-02 -0.668285692199E-02 -0.726390039473E-02 -0.788804861491E-02
 -0.855710735625E-02 -0.927265860655E-02 -0.100359759503E-01 -0.108479226365E-01 -0.117088295230E-01
 -0.126183497267E-01 -0.135752864163E-01 -0.145773897712E-01 -0.156211186909E-01 -0.167013623973E-01
 -0.178111166243E-01 -0.189411086607E-01 -0.200793651221E-01 -0.212107160049E-01 -0.223162283570E-01
 -0.233725628284E-01 -0.243512465101E-01 -0.252178558842E-01 -0.259311045014E-01 -0.264418312547E-01
 -0.266918869725E-01 -0.266129196369E-01 -0.261250620116E-01 -0.251355300147E-01 -0.235371459858E-01
 -0.212068082762E-01 -0.180039375272E-01 -0.137689407797E-01 -0.832174731034E-02 -0.146048488439E-02
  0.703961809307E-02  0.174270004640E-01  0.299740822503E-01  0.449769801114E-01  0.627544598270E-01
  0.836459435549E-01  0.108008376366E+00  0.136211750880E+00  0.168633094553E+00  0.205648746150E+00
  0.247624791807E+00  0.294905603363E+00  0.347800529343E+00  0.406568939085E+00  0.471404019181E+00
  0.542415972835E+00  0.619615577227E+00  0.702899405697E+00  0.792038406047E+00  0.886671916322E+00
  0.986309552403E+00  0.109034365536E+01  0.119807505666E+01  0.130875469981E+01  0.142170090784E+01
  0.153679735560E+01  0.165423568877E+01  0.177425063193E+01  0.000000000000E+00  0.000000000000E+00
  0.000000000000E+00  0.000000000000E+00  0.000000000000E+00  0.000000000000E+00  0.000000000000E+00
  0.000000000000E+00  0.000000000000E+00  0.000000000000E+00  0.000000000000E+00  0.000000000000E+00
  0.000000000000E+00  0.000000000000E+00  0.000000000000E+00  0.000000000000E+00  0.000000000000E+00
  0.000000000000E+00  0.000000000000E+00  0.000000000000E+00  0.000000000000E+00  0.000000000000E+00
  0.000000000000E+00  0.000000000000E+00  0.000000000000E+00  0.000000000000E+00  0.000000000000E+00
  0.000000000000E+00  0.000000000000E+00  0.000000000000E+00  0.000000000000E+00  0.000000000000E+00
  0.000000000000E+00  0.000000000000E+00  0.000000000000E+00  0.000000000000E+00  0.000000000000E+00
  0.000000000000E+00  0.000000000000E+00  0.000000000000E+00  0.000000000000E+00  0.000000000000E+00
  0.000000000000E+00  0.000000000000E+00  0.000000000000E+00  0.000000000000E+00
 ae wavefunction
 -0.551848371100E-07 -0.600921118319E-07 -0.654122539965E-07 -0.711819201223E-07 -0.774408823561E-07
 -0.842323057748E-07 -0.916030495820E-07 -0.996039943270E-07 -0.108290397473E-06 -0.117722279850E-06
 -0.127964845752E-06 -0.139088939677E-06 -0.151171542973E-06 -0.164296313963E-06 -0.178554175400E-06
 -0.194043953488E-06 -0.210873073046E-06 -0.229158313843E-06 -0.249026633522E-06 -0.270616063070E-06
 -0.294076681314E-06 -0.319571675450E-06 -0.347278495335E-06 -0.377390109877E-06 -0.410116374642E-06
 -0.445685520642E-06 -0.484345775113E-06 -0.526367126095E-06 -0.572043243687E-06 -0.621693572000E-06
 -0.675665607099E-06 -0.734337377594E-06 -0.798120146071E-06 -0.867461351149E-06 -0.942847811769E-06
 -0.102480921727E-05 -0.111392192888E-05 -0.121081312071E-05 -0.131616529058E-05 -0.143072117419E-05
 -0.155528909872E-05 -0.169074881546E-05 -0.183805785465E-05 -0.199825844951E-05 -0.217248508071E-05
 -0.236197269716E-05 -0.256806567420E-05 -0.279222757537E-05 -0.303605179044E-05 -0.330127312856E-05
 -0.358978045254E-05 -0.390363044824E-05 -0.424506263117E-05 -0.461651570192E-05 -0.502064537180E-05
 -0.546034379112E-05 -0.593876072436E-05 -0.645932662939E-05 -0.702577781199E-05 -0.764218384223E-05
 -0.831297743577E-05 -0.904298702151E-05 -0.983747223638E-05 -0.107021626096E-04 -0.116432997224E-04
 -0.126676831528E-04 -0.137827205453E-04 -0.149964821727E-04 -0.163177603893E-04 -0.177561344129E-04
 -0.193220409076E-04 -0.210268508818E-04 -0.228829534615E-04 -0.249038471461E-04 -0.271042392066E-04
 -0.295001539424E-04 -0.321090505763E-04 -0.349499516300E-04 -0.380435826973E-04 -0.414125246079E-04
 -0.450813790582E-04 -0.490769488770E-04 -0.534284341882E-04 -0.581676458407E-04 -0.633292375848E-04
 -0.689509585976E-04 -0.750739280904E-04 -0.817429338658E-04 -0.890067568507E-04 -0.969185237809E-04
 -0.105536090395E-03 -0.114922457670E-03 -0.125146223836E-03 -0.136282075101E-03 -0.148411318265E-03
 -0.161622458603E-03 -0.176011826694E-03 -0.191684258084E-03 -0.208753830005E-03 -0.227344659638E-03
 -0.247591768719E-03 -0.269642019654E-03 -0.293655128590E-03 -0.319804761318E-03 -0.348279718208E-03
 -0.379285214802E-03 -0.413044265064E-03 -0.449799174733E-03 -0.489813152623E-03 -0.533372048177E-03
 -0.580786223998E-03 -0.632392572531E-03 -0.688556686522E-03 -0.749675193301E-03 -0.816178263366E-03
 -0.888532304136E-03 -0.967242850153E-03 -0.105285766131E-02 -0.114597004102E-02 -0.124722238647E-02
 -0.135730998326E-02 -0.147698505681E-02 -0.160706109305E-02 -0.174841744038E-02 -0.190200420520E-02
 -0.206884745227E-02 -0.225005472094E-02 -0.244682086724E-02 -0.266043424070E-02 -0.289228320350E-02
 -0.314386299760E-02 -0.341678296357E-02 -0.371277411218E-02 -0.403369704689E-02 -0.438155023174E-02
 -0.475847859501E-02 -0.516678245441E-02 -0.560892674380E-02 -0.608755051533E-02 -0.660547668365E-02
 -0.716572197071E-02 -0.777150700078E-02 -0.842626648464E-02 -0.913365942111E-02 -0.989757923081E-02
 -0.107221637237E-01 -0.116118047861E-01 -0.125711576564E-01 -0.136051496402E-01 -0.147189880964E-01
 -0.159181675027E-01 -0.172084753882E-01 -0.185959968935E-01 -0.200871176938E-01 -0.216885249880E-01
 -0.234072062297E-01 -0.252504452352E-01 -0.272258152701E-01 -0.293411686740E-01 -0.316046225385E-01
 -0.340245399174E-01 -0.366095060059E-01 -0.393682987009E-01 -0.423098529340E-01 -0.454432181598E-01
 -0.487775083851E-01 -0.523218441257E-01 -0.560852856809E-01 -0.600767571187E-01 -0.643049603591E-01
 -0.687782787514E-01 -0.735046695472E-01 -0.784915446938E-01 -0.837456394092E-01 -0.892728680595E-01
 -0.950781669396E-01 -0.101165323673E+00 -0.107536793090E+00 -0.114193499621E+00 -0.121134626439E+00
 -0.128357391856E+00 -0.135856813710E+00 -0.143625462837E+00 -0.151653207037E+00 -0.159926947363E+00
 -0.168430348948E+00 -0.177143569083E+00 -0.186042985721E+00 -0.195100930098E+00 -0.204285427729E+00
 -0.213559952534E+00 -0.222883199448E+00 -0.232208881377E+00 -0.241485556901E+00 -0.250656495577E+00
 -0.259659588116E+00 -0.268427308957E+00 -0.276886738884E+00 -0.284959655140E+00 -0.292562696122E+00
 -0.299607607111E+00 -0.306001572993E+00 -0.311647643873E+00 -0.316445260403E+00 -0.320290887435E+00
 -0.323078766972E+00 -0.324701802898E+00 -0.325052589684E+00 -0.324024593261E+00 -0.321513484375E+00
 -0.317418614129E+00 -0.311644613317E+00 -0.304103094971E+00 -0.294714442342E+00 -0.283409666089E+00
 -0.270132312122E+00 -0.254840396633E+00 -0.237508340397E+00 -0.218128871261E+00 -0.196714861363E+00
 -0.173301062998E+00 -0.147945704016E+00 -0.120731900434E+00 -0.917688410464E-01 -0.611926968834E-01
 -0.291672077077E-01  0.411610117601E-02  0.384381155629E-01  0.735527813318E-01  0.109188237739E+00
  0.145048457129E+00  0.180815397714E+00  0.216151650977E+00  0.250703528923E+00  0.284104499485E+00
  0.315978871097E+00  0.345945690765E+00  0.373622971707E+00  0.398632522865E+00  0.420605578036E+00
  0.439188989789E+00  0.454051389107E+00  0.464888882923E+00  0.471430263303E+00  0.473441848491E+00
  0.470731982769E+00  0.463155095565E+00  0.450615168933E+00  0.433068488963E+00  0.410525619089E+00
  0.383052588086E+00  0.350771314692E+00  0.313859298955E+00  0.272548607037E+00  0.227124169624E+00
  0.177921408321E+00  0.125323202153E+00  0.697562089524E-01  0.116865650054E-01 -0.483850001807E-01
 -0.109928579597E+00 -0.172390961400E+00 -0.235201860704E+00 -0.297780379361E+00 -0.359541511887E+00
 -0.419902467780E+00 -0.478288581319E+00 -0.534138704769E+00 -0.586910236235E+00 -0.636084174788E+00
 -0.681170575843E+00 -0.721714427554E+00 -0.757301536047E+00 -0.787563842496E+00 -0.812183751321E+00
 -0.830897297987E+00 -0.843496143161E+00 -0.849828424137E+00 -0.849798498358E+00 -0.843365627028E+00
 -0.830541676234E+00 -0.811387946180E+00 -0.786011267857E+00 -0.754559516809E+00 -0.717216693702E+00
 -0.674197717096E+00 -0.625743055135E+00 -0.572113313988E+00 -0.513583882525E+00 -0.450439724075E+00
 -0.382970387339E+00 -0.311465303398E+00 -0.236209419876E+00 -0.157479216217E+00 -0.755391291905E-01
  0.936158761653E-02  0.969915601468E-01  0.187139546654E+00  0.279616265141E+00  0.374255834813E+00
  0.470916895156E+00  0.569483488647E+00  0.669865806489E+00  0.772000899135E+00  0.875853435030E+00
  0.981416590813E+00  0.108871309361E+01  0.119779646794E+01  0.130875249513E+01  0.142170090784E+01
  0.153679735560E+01  0.165423568877E+01  0.177425063193E+01  0.000000000000E+00  0.000000000000E+00
  0.000000000000E+00  0.000000000000E+00  0.000000000000E+00  0.000000000000E+00  0.000000000000E+00
  0.000000000000E+00  0.000000000000E+00  0.000000000000E+00  0.000000000000E+00  0.000000000000E+00
  0.000000000000E+00  0.000000000000E+00  0.000000000000E+00  0.000000000000E+00  0.000000000000E+00
  0.000000000000E+00  0.000000000000E+00  0.000000000000E+00  0.000000000000E+00  0.000000000000E+00
  0.000000000000E+00  0.000000000000E+00  0.000000000000E+00  0.000000000000E+00  0.000000000000E+00
  0.000000000000E+00  0.000000000000E+00  0.000000000000E+00  0.000000000000E+00  0.000000000000E+00
  0.000000000000E+00  0.000000000000E+00  0.000000000000E+00  0.000000000000E+00  0.000000000000E+00
  0.000000000000E+00  0.000000000000E+00  0.000000000000E+00  0.000000000000E+00  0.000000000000E+00
  0.000000000000E+00  0.000000000000E+00  0.000000000000E+00  0.000000000000E+00
 pseudo wavefunction
  0.177673143864E-03  0.183450631212E-03  0.189415988030E-03  0.195575323365E-03  0.201934944912E-03
  0.208501365481E-03  0.215281309657E-03  0.222281720696E-03  0.229509767630E-03  0.236972852607E-03
  0.244678618479E-03  0.252634956622E-03  0.260850015019E-03  0.269332206606E-03  0.278090217888E-03
  0.287133017830E-03  0.296469867047E-03  0.306110327287E-03  0.316064271220E-03  0.326341892552E-03
  0.336953716462E-03  0.347910610380E-03  0.359223795120E-03  0.370904856366E-03  0.382965756541E-03
  0.395418847056E-03  0.408276880956E-03  0.421553025986E-03  0.435260878070E-03  0.449414475240E-03
  0.464028312006E-03  0.479117354204E-03  0.494697054321E-03  0.510783367319E-03  0.527392766976E-03
  0.544542262754E-03  0.562249417218E-03  0.580532364025E-03  0.599409826491E-03  0.618901136766E-03
  0.639026255630E-03  0.659805792938E-03  0.681261028725E-03  0.703413934995E-03  0.726287198225E-03
  0.749904242597E-03  0.774289253988E-03  0.799467204734E-03  0.825463879206E-03  0.852305900214E-03
  0.880020756272E-03  0.908636829748E-03  0.938183425927E-03  0.968690803024E-03  0.100019020317E-02
  0.103271388440E-02  0.106629515370E-02  0.110096840110E-02  0.113676913491E-02  0.117373401807E-02
  0.121190090567E-02  0.125130888378E-02  0.129199830941E-02  0.133401085188E-02  0.137738953546E-02
  0.142217878346E-02  0.146842446371E-02  0.151617393549E-02  0.156547609811E-02  0.161638144090E-02
  0.166894209497E-02  0.172321188655E-02  0.177924639215E-02  0.183710299545E-02  0.189684094604E-02
  0.195852142013E-02  0.202220758317E-02  0.208796465455E-02  0.215585997434E-02  0.222596307230E-02
  0.229834573903E-02  0.237308209951E-02  0.245024868897E-02  0.252992453130E-02  0.261219121991E-02
  0.269713300131E-02  0.278483686138E-02  0.287539261438E-02  0.296889299498E-02  0.306543375313E-02
  0.316511375217E-02  0.326803506998E-02  0.337430310353E-02  0.348402667676E-02  0.359731815203E-02
  0.371429354508E-02  0.383507264388E-02  0.395977913119E-02  0.408854071120E-02  0.422148924026E-02
  0.435876086183E-02  0.450049614585E-02  0.464684023261E-02  0.479794298131E-02  0.495395912344E-02
  0.511504842112E-02  0.528137583063E-02  0.545311167117E-02  0.563043179921E-02  0.581351778838E-02
  0.600255711528E-02  0.619774335130E-02  0.639927636062E-02  0.660736250471E-02  0.682221485342E-02
  0.704405340289E-02  0.727310530057E-02  0.750960507755E-02  0.775379488833E-02  0.800592475847E-02
  0.826625284019E-02  0.853504567628E-02  0.881257847254E-02  0.909913537904E-02  0.939500978053E-02
  0.970050459615E-02  0.100159325889E-01  0.103416166852E-01  0.106778903045E-01  0.110250976998E-01
  0.113835943092E-01  0.117537471185E-01  0.121359350358E-01  0.125305492779E-01  0.129379937696E-01
  0.133586855552E-01  0.137930552238E-01  0.142415473483E-01  0.147046209377E-01  0.151827499051E-01
  0.156764235499E-01  0.161861470556E-01  0.167124420039E-01  0.172558469046E-01  0.178169177433E-01
  0.183962285455E-01  0.189943719598E-01  0.196119598589E-01  0.202496239601E-01  0.209080164650E-01
  0.215878107203E-01  0.222897018987E-01  0.230144077019E-01  0.237626690851E-01  0.245352510050E-01
  0.253329431908E-01  0.261565609396E-01  0.270069459362E-01  0.278849670991E-01  0.287915214522E-01
  0.297275350235E-01  0.306939637718E-01  0.316917945420E-01  0.327220460486E-01  0.337857698907E-01
  0.348840515962E-01  0.360180116992E-01  0.371888068478E-01  0.383976309467E-01  0.396457163326E-01
  0.409343349848E-01  0.422647997708E-01  0.436384657281E-01  0.450567313834E-01  0.465210401087E-01
  0.480328815163E-01  0.495937928921E-01  0.512053606691E-01  0.528692219411E-01  0.545870660162E-01
  0.563606360127E-01  0.581917304957E-01  0.600822051557E-01  0.620339745296E-01  0.640490137638E-01
  0.661293604194E-01  0.682771163193E-01  0.704944494377E-01  0.727835958303E-01  0.751468616050E-01
  0.775866249331E-01  0.801053380984E-01  0.827055295836E-01  0.853898061921E-01  0.881608552032E-01
  0.910214465584E-01  0.939744350746E-01  0.970227626835E-01  0.100169460690E+00  0.103417652046E+00
  0.106770553641E+00  0.110231478586E+00  0.113803838509E+00  0.117491145831E+00  0.121297016028E+00
  0.125225169867E+00  0.129279435600E+00  0.133463751106E+00  0.137782165974E+00  0.142238843501E+00
  0.146838062595E+00  0.151584219561E+00  0.156481829748E+00  0.161535529039E+00  0.166750075151E+00
  0.172130348717E+00  0.177681354122E+00  0.183408220056E+00  0.189316199739E+00  0.195410670780E+00
  0.201697134628E+00  0.208181215542E+00  0.214868659049E+00  0.221765329800E+00  0.228877208772E+00
  0.236210389731E+00  0.243771074874E+00  0.251565569547E+00  0.259600275961E+00  0.267881685764E+00
  0.276416371370E+00  0.285210975911E+00  0.294272201647E+00  0.303606796708E+00  0.313221539967E+00
  0.323123223875E+00  0.333318635058E+00  0.343814532446E+00  0.354617622705E+00  0.365734532721E+00
  0.377171778855E+00  0.388935732678E+00  0.401032582875E+00  0.413468292968E+00  0.426248554520E+00
  0.439378735413E+00  0.452863822819E+00  0.466708360421E+00  0.480916379454E+00  0.495491323078E+00
  0.510435963626E+00  0.525752312204E+00  0.541441520153E+00  0.557503771853E+00  0.573938168351E+00
  0.590742601329E+00  0.607913616902E+00  0.625446268823E+00  0.643333960668E+00  0.661568276679E+00
  0.680138800997E+00  0.699032925148E+00  0.718235643774E+00  0.737729338782E+00  0.757493552286E+00
  0.777504748976E+00  0.797736068867E+00  0.818157071724E+00  0.838733474901E+00  0.859426886830E+00
  0.880194538956E+00  0.900989019584E+00  0.921758013852E+00  0.942444054858E+00  0.962984291930E+00
  0.983310283014E+00  0.100334781929E+01  0.102301679130E+01  0.104223110703E+01  0.106089867384E+01
  0.107892145709E+01  0.109619562976E+01  0.111261182823E+01  0.112805553020E+01  0.114240757116E+01
  0.115554481590E+01  0.116734100049E+01  0.117766775883E+01  0.118639584486E+01  0.119339655744E+01
  0.119854336871E+01  0.120171374882E+01  0.120279116917E+01  0.120166725292E+01  0.119824402480E+01
  0.119243619208E+01  0.118417336501E+01  0.117340209747E+01  0.116008759859E+01  0.114421493278E+01
  0.112578949249E+01  0.110483649495E+01  0.108139922617E+01  0.105553573547E+01  0.102731367826E+01
  0.996803019966E+00  0.964066359678E+00  0.929146717144E+00  0.892052764034E+00  0.852779140894E+00
  0.811622843448E+00  0.769032541579E+00  0.725447669942E+00  0.681289941395E+00  0.636959352002E+00
  0.592830702953E+00  0.549250646003E+00  0.506535267563E+00  0.464968208298E+00  0.424799304918E+00
  0.386243731857E+00  0.349481618874E+00  0.314658122472E+00  0.281883937124E+00  0.251236241346E+00
  0.222760080441E+00  0.196470187310E+00  0.172353231885E+00  0.150370469142E+00  0.130460728416E+00
  0.112543659638E+00  0.965231306306E-01  0.822906585473E-01  0.697287592222E-01  0.587141098078E-01
  0.491204398566E-01  0.408210907535E-01  0.336912097837E-01  0.276095701781E-01  0.224600297074E-01
  0.181326558643E-01  0.145245543970E-01  0.115404401568E-01  0.909298639474E-02  0.710298310675E-02
  0.549932921863E-02  0.421887909977E-02  0.320616186596E-02  0.241299195975E-02  0.179799076514E-02
  0.132604053140E-02  0.967692828988E-03  0.698553648487E-03  0.498665938266E-03  0.351907982789E-03
  0.245422841508E-03  0.169090450973E-03  0.115050285248E-03  0.772789608744E-04
 ae wavefunction
 -0.106209744913E-01 -0.108906622043E-01 -0.111670270693E-01 -0.114502256901E-01 -0.117404177886E-01
 -0.120377662328E-01 -0.123424370634E-01 -0.126545995174E-01 -0.129744260489E-01 -0.133020923475E-01
 -0.136377773527E-01 -0.139816632652E-01 -0.143339355546E-01 -0.146947829621E-01 -0.150643974996E-01
 -0.154429744430E-01 -0.158307123206E-01 -0.162278128958E-01 -0.166344811432E-01 -0.170509252180E-01
 -0.174773564186E-01 -0.179139891410E-01 -0.183610408249E-01 -0.188187318907E-01 -0.192872856674E-01
 -0.197669283099E-01 -0.202578887048E-01 -0.207603983656E-01 -0.212746913144E-01 -0.218010039505E-01
 -0.223395749053E-01 -0.228906448812E-01 -0.234544564750E-01 -0.240312539842E-01 -0.246212831945E-01
 -0.252247911484E-01 -0.258420258938E-01 -0.264732362094E-01 -0.271186713086E-01 -0.277785805181E-01
 -0.284532129306E-01 -0.291428170303E-01 -0.298476402895E-01 -0.305679287343E-01 -0.313039264778E-01
 -0.320558752196E-01 -0.328240137085E-01 -0.336085771672E-01 -0.344097966773E-01 -0.352278985211E-01
 -0.360631034791E-01 -0.369156260806E-01 -0.377856738044E-01 -0.386734462277E-01 -0.395791341203E-01
 -0.405029184809E-01 -0.414449695137E-01 -0.424054455412E-01 -0.433844918510E-01 -0.443822394728E-01
 -0.453988038829E-01 -0.464342836329E-01 -0.474887588981E-01 -0.485622899441E-01 -0.496549155058E-01
 -0.507666510770E-01 -0.518974871056E-01 -0.530473870914E-01 -0.542162855823E-01 -0.554040860654E-01
 -0.566106587489E-01 -0.578358382308E-01 -0.590794210511E-01 -0.603411631232E-01 -0.616207770412E-01
 -0.629179292592E-01 -0.642322371389E-01 -0.655632658633E-01 -0.669105252117E-01 -0.682734661941E-01
 -0.696514775428E-01 -0.710438820577E-01 -0.724499328043E-01 -0.738688091634E-01 -0.752996127299E-01
 -0.767413630624E-01 -0.781929932826E-01 -0.796533455267E-01 -0.811211662494E-01 -0.825951013856E-01
 -0.840736913716E-01 -0.855553660324E-01 -0.870384393422E-01 -0.885211040646E-01 -0.900014262835E-01
 -0.914773398364E-01 -0.929466406617E-01 -0.944069810789E-01 -0.958558640164E-01 -0.972906372098E-01
 -0.987084873933E-01 -0.100106434510E+00 -0.101481325971E+00 -0.102829831001E+00 -0.104148435096E+00
 -0.105433434646E+00 -0.106680931769E+00 -0.107886829387E+00 -0.109046826629E+00 -0.110156414597E+00
 -0.111210872571E+00 -0.112205264729E+00 -0.113134437446E+00 -0.113993017280E+00 -0.114775409711E+00
 -0.115475798751E+00 -0.116088147526E+00 -0.116606199939E+00 -0.117023483545E+00 -0.117333313763E+00
 -0.117528799563E+00 -0.117602850781E+00 -0.117548187213E+00 -0.117357349648E+00 -0.117022713020E+00
 -0.116536501857E+00 -0.115890808209E+00 -0.115077612250E+00 -0.114088805761E+00 -0.112916218693E+00
 -0.111551649018E+00 -0.109986896087E+00 -0.108213797703E+00 -0.106224271121E+00 -0.104010358189E+00
 -0.101564274830E+00 -0.988784650657E-01 -0.959456597559E-01 -0.927589402376E-01 -0.893118069980E-01
 -0.855982535154E-01 -0.816128453620E-01 -0.773508046268E-01 -0.728080996815E-01 -0.679815402585E-01
 -0.628688777589E-01 -0.574689106407E-01 -0.517815946702E-01 -0.458081577323E-01 -0.395512188083E-01
 -0.330149106270E-01 -0.262050053806E-01 -0.191290427792E-01 -0.117964595845E-01 -0.421871962711E-02
  0.359055683021E-02  0.116154656646E-01  0.198376948279E-01  0.282364052160E-01  0.367881181989E-01
  0.454666117026E-01  0.542428269248E-01  0.630847879963E-01  0.719575371478E-01  0.808230882361E-01
  0.896404017518E-01  0.983653846815E-01  0.106950918787E+00  0.115346920982E+00  0.123500439545E+00
  0.131355789889E+00  0.138854733559E+00  0.145936704009E+00  0.152539082558E+00  0.158597527686E+00
  0.164046360602E+00  0.168819009644E+00  0.172848515670E+00  0.176068100092E+00  0.178411796559E+00
  0.179815146563E+00  0.180215958345E+00  0.179555127463E+00  0.177777516223E+00  0.174832887854E+00
  0.170676889860E+00  0.165272079412E+00  0.158588981883E+00  0.150607171849E+00  0.141316363918E+00
  0.130717498792E+00  0.118823807933E+00  0.105661838231E+00  0.912724161068E-01  0.757115286905E-01
  0.590510980550E-01  0.413796231110E-01  0.228026627295E-01  0.344313311309E-02 -0.165586074915E-01
 -0.370449127873E-01 -0.578412655192E-01 -0.787569797753E-01 -0.995862081486E-01 -0.120109271318E+00
 -0.140094326151E+00 -0.159299387207E+00 -0.177474714514E+00 -0.194365575833E+00 -0.209715382678E+00
 -0.223269185440E+00 -0.234777497359E+00 -0.244000404055E+00 -0.250711907256E+00 -0.254704444554E+00
 -0.255793518573E+00 -0.253822358597E+00 -0.248666527783E+00 -0.240238381173E+00 -0.228491273636E+00
 -0.213423412213E+00 -0.195081243688E+00 -0.173562265910E+00 -0.149017151130E+00 -0.121651071962E+00
 -0.917241264256E-01 -0.595507683362E-01 -0.254981633912E-01  0.100165901854E-01  0.465304149031E-01
  0.835393923178E-01  0.120505063814E+00  0.156861827614E+00  0.192025310914E+00  0.225401539844E+00
  0.256396701587E+00  0.284427332615E+00  0.308930891139E+00  0.329376801846E+00  0.345277982184E+00
  0.356202463135E+00  0.361784391943E+00  0.361733864629E+00  0.355845402760E+00  0.344005030821E+00
  0.326195847281E+00  0.302501901559E+00  0.273110184114E+00  0.238310601585E+00  0.198493899455E+00
  0.154147571454E+00  0.105849844849E+00  0.542618606947E-01  0.118188002526E-03 -0.557841717789E-01
 -0.112598114810E+00 -0.169439902426E+00 -0.225403543944E+00 -0.279575845023E+00 -0.331051844528E+00
 -0.378950340516E+00 -0.422429185426E+00 -0.460700015193E+00 -0.493042059423E+00 -0.518814659144E+00
 -0.537468139216E+00 -0.548552777282E+00 -0.551725830153E+00 -0.546756835628E+00 -0.533531516240E+00
 -0.512054402926E+00 -0.482449891490E+00 -0.444961190210E+00 -0.399946732869E+00 -0.347873975241E+00
 -0.289310785088E+00 -0.224914770372E+00 -0.155420920160E+00 -0.816279392591E-01 -0.438366933926E-02
  0.754300016791E-01  0.156912346227E+00  0.239158748102E+00  0.321275066671E+00  0.402391130332E+00
  0.481673127324E+00  0.558334709743E+00  0.631646675485E+00  0.700945134222E+00  0.765638107573E+00
  0.825210545090E+00  0.879227777800E+00  0.927337456979E+00  0.969270057924E+00  0.100483804268E+01
  0.103393380553E+01  0.105652653517E+01  0.107265815041E+01  0.108243847834E+01  0.108603985256E+01
  0.108369130654E+01  0.107567251981E+01  0.106230764256E+01  0.104395908840E+01  0.102102134001E+01
  0.993914817063E+00  0.963079788160E+00  0.928970380721E+00  0.892048705304E+00  0.852779140894E+00
  0.811622843448E+00  0.769032541579E+00  0.725447669942E+00  0.681289941395E+00  0.636959352002E+00
  0.592830702953E+00  0.549250646003E+00  0.506535267563E+00  0.464968208298E+00  0.424799304918E+00
  0.386243731857E+00  0.349481618874E+00  0.314658122472E+00  0.281883937124E+00  0.251236241346E+00
  0.222760080441E+00  0.196470187310E+00  0.172353231885E+00  0.150370469142E+00  0.130460728416E+00
  0.112543659638E+00  0.965231306306E-01  0.822906585473E-01  0.697287592222E-01  0.587141098078E-01
  0.491204398566E-01  0.408210907535E-01  0.336912097837E-01  0.276095701781E-01  0.224600297074E-01
  0.181326558643E-01  0.145245543970E-01  0.115404401568E-01  0.909298639474E-02  0.710298310675E-02
  0.549932921863E-02  0.421887909977E-02  0.320616186596E-02  0.241299195975E-02  0.179799076514E-02
  0.132604053140E-02  0.967692828988E-03  0.698553648487E-03  0.498665938266E-03  0.351907982789E-03
  0.245422841508E-03  0.169090450973E-03  0.115050285248E-03  0.772789608744E-04
 pseudo wavefunction
 -0.299302614980E-03 -0.309035189261E-03 -0.319084242568E-03 -0.329460066010E-03 -0.340173285334E-03
 -0.351234871813E-03 -0.362656153476E-03 -0.374448826710E-03 -0.386624968244E-03 -0.399197047506E-03
 -0.412177939403E-03 -0.425580937500E-03 -0.439419767634E-03 -0.453708601976E-03 -0.468462073535E-03
 -0.483695291152E-03 -0.499423854969E-03 -0.515663872405E-03 -0.532431974652E-03 -0.549745333707E-03
 -0.567621679956E-03 -0.586079320333E-03 -0.605137157067E-03 -0.624814707040E-03 -0.645132121774E-03
 -0.666110208067E-03 -0.687770449302E-03 -0.710135027447E-03 -0.733226845770E-03 -0.757069552297E-03
 -0.781687564027E-03 -0.807106091938E-03 -0.833351166803E-03 -0.860449665853E-03 -0.888429340294E-03
 -0.917318843731E-03 -0.947147761514E-03 -0.977946641028E-03 -0.100974702298E-02 -0.104258147371E-02
 -0.107648361852E-02 -0.111148817612E-02 -0.114763099418E-02 -0.118494908606E-02 -0.122348066868E-02
 -0.126326520169E-02 -0.130434342783E-02 -0.134675741474E-02 -0.139055059793E-02 -0.143576782537E-02
 -0.148245540334E-02 -0.153066114387E-02 -0.158043441373E-02 -0.163182618494E-02 -0.168488908702E-02
 -0.173967746083E-02 -0.179624741426E-02 -0.185465687967E-02 -0.191496567323E-02 -0.197723555615E-02
 -0.204153029795E-02 -0.210791574175E-02 -0.217645987170E-02 -0.224723288260E-02 -0.232030725178E-02
 -0.239575781331E-02 -0.247366183467E-02 -0.255409909581E-02 -0.263715197091E-02 -0.272290551270E-02
 -0.281144753955E-02 -0.290286872541E-02 -0.299726269267E-02 -0.309472610801E-02 -0.319535878139E-02
 -0.329926376826E-02 -0.340654747508E-02 -0.351731976829E-02 -0.363169408679E-02 -0.374978755812E-02
 -0.387172111836E-02 -0.399761963601E-02 -0.412761203979E-02 -0.426183145069E-02 -0.440041531827E-02
 -0.454350556138E-02 -0.469124871348E-02 -0.484379607266E-02 -0.500130385657E-02 -0.516393336232E-02
 -0.533185113169E-02 -0.550522912154E-02 -0.568424487995E-02 -0.586908172794E-02 -0.605992894714E-02
 -0.625698197359E-02 -0.646044259778E-02 -0.667051917124E-02 -0.688742681981E-02 -0.711138766384E-02
 -0.734263104557E-02 -0.758139376383E-02 -0.782792031648E-02 -0.808246315057E-02 -0.834528292077E-02
 -0.861664875608E-02 -0.889683853526E-02 -0.918613917121E-02 -0.948484690450E-02 -0.979326760653E-02
 -0.101117170925E-01 -0.104405214443E-01 -0.107800173445E-01 -0.111305524205E-01 -0.114924855999E-01
 -0.118661874782E-01 -0.122520406970E-01 -0.126504403362E-01 -0.130617943171E-01 -0.134865238202E-01
 -0.139250637152E-01 -0.143778630058E-01 -0.148453852886E-01 -0.153281092269E-01 -0.158265290393E-01
 -0.163411550055E-01 -0.168725139866E-01 -0.174211499637E-01 -0.179876245934E-01 -0.185725177807E-01
 -0.191764282715E-01 -0.197999742631E-01 -0.204437940352E-01 -0.211085466009E-01 -0.217949123785E-01
 -0.225035938851E-01 -0.232353164528E-01 -0.239908289675E-01 -0.247709046315E-01 -0.255763417505E-01
 -0.264079645463E-01 -0.272666239951E-01 -0.281531986924E-01 -0.290685957465E-01 -0.300137516991E-01
 -0.309896334767E-01 -0.319972393713E-01 -0.330376000528E-01 -0.341117796133E-01 -0.352208766444E-01
 -0.363660253492E-01 -0.375483966884E-01 -0.387691995638E-01 -0.400296820376E-01 -0.413311325915E-01
 -0.426748814238E-01 -0.440623017880E-01 -0.454948113726E-01 -0.469738737239E-01 -0.485009997129E-01
 -0.500777490473E-01 -0.517057318299E-01 -0.533866101651E-01 -0.551220998138E-01 -0.569139718989E-01
 -0.587640546624E-01 -0.606742352747E-01 -0.626464616986E-01 -0.646827446082E-01 -0.667851593646E-01
 -0.689558480489E-01 -0.711970215553E-01 -0.735109617436E-01 -0.759000236534E-01 -0.783666377810E-01
 -0.809133124198E-01 -0.835426360660E-01 -0.862572798887E-01 -0.890600002682E-01 -0.919536414004E-01
 -0.949411379695E-01 -0.980255178896E-01 -0.101209905114E+00 -0.104497522517E+00 -0.107891694838E+00
 -0.111395851703E+00 -0.115013530709E+00 -0.118748380574E+00 -0.122604164363E+00 -0.126584762767E+00
 -0.130694177457E+00 -0.134936534489E+00 -0.139316087770E+00 -0.143837222587E+00 -0.148504459172E+00
 -0.153322456325E+00 -0.158296015070E+00 -0.163430082353E+00 -0.168729754752E+00 -0.174200282225E+00
 -0.179847071845E+00 -0.185675691552E+00 -0.191691873870E+00 -0.197901519613E+00 -0.204310701532E+00
 -0.210925667901E+00 -0.217752846024E+00 -0.224798845631E+00 -0.232070462138E+00 -0.239574679754E+00
 -0.247318674390E+00 -0.255309816337E+00 -0.263555672684E+00 -0.272064009418E+00 -0.280842793160E+00
 -0.289900192496E+00 -0.299244578822E+00 -0.308884526651E+00 -0.318828813303E+00 -0.329086417894E+00
 -0.339666519544E+00 -0.350578494679E+00 -0.361831913351E+00 -0.373436534425E+00 -0.385402299507E+00
 -0.397739325477E+00 -0.410457895438E+00 -0.423568447928E+00 -0.437081564173E+00 -0.451007953181E+00
 -0.465358434424E+00 -0.480143917852E+00 -0.495375380945E+00 -0.511063842491E+00 -0.527220332735E+00
 -0.543855859518E+00 -0.560981370003E+00 -0.578607707501E+00 -0.596745562930E+00 -0.615405420338E+00
 -0.634597495906E+00 -0.654331669774E+00 -0.674617409988E+00 -0.695463687796E+00 -0.716878883450E+00
 -0.738870681620E+00 -0.761445955418E+00 -0.784610637971E+00 -0.808369580404E+00 -0.832726394967E+00
 -0.857683281984E+00 -0.883240839187E+00 -0.909397851880E+00 -0.936151062306E+00 -0.963494916446E+00
 -0.991421286409E+00 -0.101991916642E+01 -0.104897434035E+01 -0.107856901866E+01 -0.110868144236E+01
 -0.113928545192E+01 -0.117035001844E+01 -0.120183873496E+01 -0.123370926530E+01 -0.126591274818E+01
 -0.129839315444E+01 -0.133108659514E+01 -0.136392057884E+01 -0.139681321663E+01 -0.142967237389E+01
 -0.146239476854E+01 -0.149486501621E+01 -0.152695462400E+01 -0.155852093569E+01 -0.158940603283E+01
 -0.161943559827E+01 -0.164841775101E+01 -0.167614186419E+01 -0.170237738153E+01 -0.172687265161E+01
 -0.174935380443E+01 -0.176952370021E+01 -0.178706098724E+01 -0.180161931339E+01 -0.181282674446E+01
 -0.182028545301E+01 -0.182357175251E+01 -0.182223656431E+01 -0.181580641899E+01 -0.180378510888E+01
 -0.178565612434E+01 -0.176088602368E+01 -0.172892890305E+01 -0.168923214926E+01 -0.164124367315E+01
 -0.158442083306E+01 -0.151824126509E+01 -0.144221583734E+01 -0.135590393628E+01 -0.125893127141E+01
 -0.115101034636E+01 -0.103196368485E+01 -0.901749815346E+00 -0.760491902441E+00 -0.608508761316E+00
 -0.446347800323E+00 -0.274819201175E+00 -0.950303660640E-01  0.915806626179E-01  0.283223799729E+00
  0.477860690699E+00  0.673312130195E+00  0.867263382204E+00  0.000000000000E+00  0.000000000000E+00
  0.000000000000E+00  0.000000000000E+00  0.000000000000E+00  0.000000000000E+00  0.000000000000E+00
  0.000000000000E+00  0.000000000000E+00  0.000000000000E+00  0.000000000000E+00  0.000000000000E+00
  0.000000000000E+00  0.000000000000E+00  0.000000000000E+00  0.000000000000E+00  0.000000000000E+00
  0.000000000000E+00  0.000000000000E+00  0.000000000000E+00  0.000000000000E+00  0.000000000000E+00
  0.000000000000E+00  0.000000000000E+00  0.000000000000E+00  0.000000000000E+00  0.000000000000E+00
  0.000000000000E+00  0.000000000000E+00  0.000000000000E+00  0.000000000000E+00  0.000000000000E+00
  0.000000000000E+00  0.000000000000E+00  0.000000000000E+00  0.000000000000E+00  0.000000000000E+00
  0.000000000000E+00  0.000000000000E+00  0.000000000000E+00  0.000000000000E+00  0.000000000000E+00
  0.000000000000E+00  0.000000000000E+00  0.000000000000E+00  0.000000000000E+00
 ae wavefunction
  0.167399119783E-01  0.171649715663E-01  0.176005551140E-01  0.180469094464E-01  0.185042863022E-01
  0.189729423793E-01  0.194531393758E-01  0.199451440274E-01  0.204492281403E-01  0.209656686198E-01
  0.214947474938E-01  0.220367519298E-01  0.225919742473E-01  0.231607119223E-01  0.237432675854E-01
  0.243399490115E-01  0.249510691018E-01  0.255769458556E-01  0.262179023338E-01  0.268742666098E-01
  0.275463717109E-01  0.282345555463E-01  0.289391608220E-01  0.296605349422E-01  0.303990298947E-01
  0.311550021206E-01  0.319288123668E-01  0.327208255198E-01  0.335314104196E-01  0.343609396528E-01
  0.352097893231E-01  0.360783387986E-01  0.369669704322E-01  0.378760692568E-01  0.388060226505E-01
  0.397572199720E-01  0.407300521633E-01  0.417249113183E-01  0.427421902150E-01  0.437822818093E-01
  0.448455786875E-01  0.459324724762E-01  0.470433532061E-01  0.481786086275E-01  0.493386234751E-01
  0.505237786781E-01  0.517344505140E-01  0.529710097018E-01  0.542338204321E-01  0.555232393301E-01
  0.568396143481E-01  0.581832835845E-01  0.595545740234E-01  0.609538001939E-01  0.623812627412E-01
  0.638372469089E-01  0.653220209250E-01  0.668358342885E-01  0.683789159515E-01  0.699514723918E-01
  0.715536855711E-01  0.731857107724E-01  0.748476743135E-01  0.765396711289E-01  0.782617622150E-01
  0.800139719344E-01  0.817962851708E-01  0.836086443310E-01  0.854509461862E-01  0.873230385482E-01
  0.892247167726E-01  0.911557200848E-01  0.931157277213E-01  0.951043548812E-01  0.971211484819E-01
  0.991655827126E-01  0.101237054382E+00  0.103334878051E+00  0.105458280951E+00  0.107606397682E+00
  0.109778264675E+00  0.111972814439E+00  0.114188869563E+00  0.116425136492E+00  0.118680199062E+00
  0.120952511800E+00  0.123240392988E+00  0.125542017493E+00  0.127855409366E+00  0.130178434213E+00
  0.132508791351E+00  0.134844005746E+00  0.137181419755E+00  0.139518184681E+00  0.141851252145E+00
  0.144177365321E+00  0.146493050017E+00  0.148794605665E+00  0.151078096220E+00  0.153339341019E+00
  0.155573905618E+00  0.157777092673E+00  0.159943932888E+00  0.162069176100E+00  0.164147282548E+00
  0.166172414398E+00  0.168138427589E+00  0.170038864088E+00  0.171866944632E+00  0.173615562060E+00
  0.175277275328E+00  0.176844304342E+00  0.178308525705E+00  0.179661469533E+00  0.180894317476E+00
  0.181997902105E+00  0.182962707824E+00  0.183778873499E+00  0.184436196988E+00  0.184924141784E+00
  0.185231845979E+00  0.185348133803E+00  0.185261529952E+00  0.184960276990E+00  0.184432356085E+00
  0.183665511358E+00  0.182647278153E+00  0.181365015520E+00  0.179805943230E+00  0.177957183661E+00
  0.175805808855E+00  0.173338893113E+00  0.170543571439E+00  0.167407104187E+00  0.163916948225E+00
  0.160060834952E+00  0.155826855467E+00  0.151203553187E+00  0.146180024176E+00  0.140746025420E+00
  0.134892091249E+00  0.128609658055E+00  0.121891197400E+00  0.114730357549E+00  0.107122113380E+00
  0.990629245384E-01  0.905509016106E-01  0.815859799579E-01  0.721701007464E-01  0.623073985485E-01
  0.520043947359E-01  0.412701957107E-01  0.301166948235E-01  0.185587766270E-01  0.661452189390E-02
 -0.569458839357E-02 -0.183434721054E-01 -0.313032503251E-01 -0.445410594915E-01 -0.580198740428E-01
 -0.716983425458E-01 -0.855306405947E-01 -0.994663441260E-01 -0.113450327188E+00 -0.127422688667E+00
 -0.141318712896E+00 -0.155068869466E+00 -0.168598857862E+00 -0.181829702736E+00 -0.194677905700E+00
 -0.207055659535E+00 -0.218871130592E+00 -0.230028814996E+00 -0.240429974016E+00 -0.249973153619E+00
 -0.258554792796E+00 -0.266069924739E+00 -0.272412974272E+00 -0.277478654144E+00 -0.281162961792E+00
 -0.283364277000E+00 -0.283984559489E+00 -0.282930643870E+00 -0.280115627522E+00 -0.275460344942E+00
 -0.268894919770E+00 -0.260360383216E+00 -0.249810344897E+00 -0.237212699191E+00 -0.222551347197E+00
 -0.205827911238E+00 -0.187063415674E+00 -0.166299904634E+00 -0.143601964204E+00 -0.119058113730E+00
 -0.927820283075E-01 -0.649135523104E-01 -0.356194621964E-01 -0.509393591573E-02  0.264413136183E-01
  0.587372822184E-01  0.915183338837E-01  0.124483311066E+00  0.157307126906E+00  0.189642867327E+00
  0.221124428553E+00  0.251369713744E+00  0.279984409196E+00  0.306566353249E+00  0.330710496854E+00
  0.352014432801E+00  0.370084445914E+00  0.384542015963E+00  0.395030692228E+00  0.401223247839E+00
  0.402829008606E+00  0.399601234627E+00  0.391344417237E+00  0.377921341162E+00  0.359259752127E+00
  0.335358462537E+00  0.306292722017E+00  0.272218675775E+00  0.233376733162E+00  0.190093672391E+00
  0.142783316481E+00  0.919456307957E-01  0.381641148260E-01 -0.178986100697E-01 -0.755070793586E-01
 -0.133861149686E+00 -0.192106014684E+00 -0.249343968868E+00 -0.304647729432E+00 -0.357075036829E+00
 -0.405684210488E+00 -0.449550398530E+00 -0.487782456080E+00 -0.519540590051E+00 -0.544054780897E+00
 -0.560643364180E+00 -0.568730642381E+00 -0.567862652399E+00 -0.557720792256E+00 -0.538133231972E+00
 -0.509083932072E+00 -0.470718965051E+00 -0.423349827456E+00 -0.367453532392E+00 -0.303669414735E+00
 -0.232792701670E+00 -0.155764979263E+00 -0.736617326026E-01  0.123228316369E-01  0.100893443331E+00
  0.190673640346E+00  0.280227549955E+00  0.368083235103E+00  0.452757214884E+00  0.532779722753E+00
  0.606720228131E+00  0.673212711603E+00  0.730980156940E+00  0.778857692922E+00  0.815813784200E+00
  0.840968903847E+00  0.853611271661E+00  0.853209586515E+00  0.839423075228E+00  0.812109329914E+00
  0.771330056815E+00  0.717354219206E+00  0.650657675441E+00  0.571918619201E+00  0.482008680775E+00
  0.381980005893E+00  0.273048836516E+00  0.156576165313E+00  0.340460495446E-01 -0.929578079571E-01
 -0.222776587326E+00 -0.353701376201E+00 -0.483998116572E+00 -0.611931965000E+00 -0.735790632613E+00
 -0.853906354195E+00 -0.964676210133E+00 -0.106658060247E+01 -0.115819975128E+01 -0.123822814762E+01
 -0.130548694870E+01 -0.135893436589E+01 -0.139767413645E+01 -0.142096222223E+01 -0.142821189884E+01
 -0.141899744572E+01 -0.139305665866E+01 -0.135029243372E+01 -0.129077367434E+01 -0.121473576314E+01
 -0.112258080301E+01 -0.101487776682E+01 -0.892362609022E+00 -0.755938304228E+00 -0.606674693586E+00
 -0.445807990110E+00 -0.274739724630E+00 -0.950349555592E-01  0.915804671882E-01  0.283223799729E+00
  0.477860690699E+00  0.673312130195E+00  0.867263382204E+00  0.000000000000E+00  0.000000000000E+00
  0.000000000000E+00  0.000000000000E+00  0.000000000000E+00  0.000000000000E+00  0.000000000000E+00
  0.000000000000E+00  0.000000000000E+00  0.000000000000E+00  0.000000000000E+00  0.000000000000E+00
  0.000000000000E+00  0.000000000000E+00  0.000000000000E+00  0.000000000000E+00  0.000000000000E+00
  0.000000000000E+00  0.000000000000E+00  0.000000000000E+00  0.000000000000E+00  0.000000000000E+00
  0.000000000000E+00  0.000000000000E+00  0.000000000000E+00  0.000000000000E+00  0.000000000000E+00
  0.000000000000E+00  0.000000000000E+00  0.000000000000E+00  0.000000000000E+00  0.000000000000E+00
  0.000000000000E+00  0.000000000000E+00  0.000000000000E+00  0.000000000000E+00  0.000000000000E+00
  0.000000000000E+00  0.000000000000E+00  0.000000000000E+00  0.000000000000E+00  0.000000000000E+00
  0.000000000000E+00  0.000000000000E+00  0.000000000000E+00  0.000000000000E+00
 pseudo wavefunction
  0.812886779024E-08  0.866612415937E-08  0.923888909036E-08  0.984950942921E-08  0.105004871306E-07
  0.111944895093E-07  0.119343601694E-07  0.127231306557E-07  0.135640328747E-07  0.144605123378E-07
  0.154162422781E-07  0.164351387017E-07  0.175213764330E-07  0.186794062201E-07  0.199139729723E-07
  0.212301352009E-07  0.226332857464E-07  0.241291738751E-07  0.257239288360E-07  0.274240849749E-07
  0.292366085081E-07  0.311689260657E-07  0.332289551218E-07  0.354251364351E-07  0.377664686341E-07
  0.402625450883E-07  0.429235932161E-07  0.457605163899E-07  0.487849386125E-07  0.520092521446E-07
  0.554466682808E-07  0.591112714819E-07  0.630180770843E-07  0.671830928235E-07  0.716233844245E-07
  0.763571455269E-07  0.814037722309E-07  0.867839425711E-07  0.925197012429E-07  0.986345499276E-07
  0.105153543589E-06  0.112103393131E-06  0.119512574847E-06  0.127411447095E-06  0.135832374688E-06
  0.144809861508E-06  0.154380691876E-06  0.164584081281E-06  0.175461837051E-06  0.187058529663E-06
  0.199421675358E-06  0.212601930839E-06  0.226653300828E-06  0.241633359348E-06  0.257603485620E-06
  0.274629115564E-06  0.292780009910E-06  0.312130540038E-06  0.332759992706E-06  0.354752894914E-06
  0.378199360249E-06  0.403195458113E-06  0.429843607352E-06  0.458252995910E-06  0.488540028212E-06
  0.520828802115E-06  0.555251617383E-06  0.591949517774E-06  0.631072868939E-06  0.672781974536E-06
  0.717247733046E-06  0.764652338009E-06  0.815190024539E-06  0.869067865172E-06  0.926506618319E-06
  0.987741632790E-06  0.105302381210E-05  0.112262064253E-05  0.119681728906E-05  0.127591776384E-05
  0.136024617182E-05  0.145014803869E-05  0.154599172665E-05  0.164816994368E-05  0.175710135262E-05
  0.187323228654E-05  0.199703857752E-05  0.212902750628E-05  0.226973988066E-05  0.241975225149E-05
  0.257967927482E-05  0.275017623045E-05  0.293194170666E-05  0.312572046264E-05  0.333230647985E-05
  0.355254621524E-05  0.378734206934E-05  0.403765608362E-05  0.430451388219E-05  0.458900887394E-05
  0.489230673252E-05  0.521565017227E-05  0.556036403983E-05  0.592786074222E-05  0.631964603368E-05
  0.673732518492E-05  0.718260956002E-05  0.765732362809E-05  0.816341243814E-05  0.870294958806E-05
  0.927814572016E-05  0.989135757808E-05  0.105450976623E-04  0.112420445237E-04  0.119850537372E-04
  0.127771696007E-04  0.136216376071E-04  0.145219177401E-04  0.154816986494E-04  0.165049127613E-04
  0.175957523891E-04  0.187586869072E-04  0.199984810599E-04  0.213202144803E-04  0.227293024988E-04
  0.242315183261E-04  0.258330167025E-04  0.275403591086E-04  0.293605406423E-04  0.313010186717E-04
  0.333697433798E-04  0.355751903279E-04  0.379263951699E-04  0.404329906592E-04  0.431052461007E-04
  0.459541094081E-04  0.489912519392E-04  0.522291162926E-04  0.556809672605E-04  0.593609461464E-04
  0.632841286702E-04  0.674665866964E-04  0.719254540379E-04  0.766789966046E-04  0.817466871831E-04
  0.871492851530E-04  0.929089214642E-04  0.990491892243E-04  0.105595240263E-03  0.112573888071E-03
  0.120013717527E-03  0.127945201870E-03  0.136400827381E-03  0.145415226297E-03  0.155025318483E-03
  0.165270462448E-03  0.176192616326E-03  0.187836509457E-03  0.200249825280E-03  0.213483396289E-03
  0.227591411819E-03  0.242631639525E-03  0.258665661454E-03  0.275759125645E-03  0.293982014307E-03
  0.313408929632E-03  0.334119398420E-03  0.356198196732E-03  0.379735695891E-03  0.404828231225E-03
  0.431578495032E-03  0.460095955353E-03  0.490497302238E-03  0.522906923293E-03  0.557457410411E-03
  0.594290099723E-03  0.633555646924E-03  0.675414640265E-03  0.720038253657E-03  0.767608942480E-03
  0.818321184867E-03  0.872382271372E-03  0.930013146175E-03  0.991449303107E-03  0.105694174003E-02
  0.112675797531E-02  0.120118313034E-02  0.128052108235E-02  0.136509569196E-02  0.145525211020E-02
  0.155135817004E-02  0.165380586784E-02  0.176301294018E-02  0.187942454227E-02  0.200351503414E-02
  0.213578988129E-02  0.227678767707E-02  0.242708229403E-02  0.258728517237E-02  0.275804775367E-02
  0.294006406885E-02  0.313407348959E-02  0.334086365286E-02  0.356127356914E-02  0.379619692475E-02
  0.404658558994E-02  0.431345334450E-02  0.459787983325E-02  0.490101476459E-02  0.522408236547E-02
  0.556838610710E-02  0.593531371591E-02  0.632634248510E-02  0.674304490240E-02  0.718709461042E-02
  0.766027271606E-02  0.816447446628E-02  0.870171630738E-02  0.927414334566E-02  0.988403722708E-02
  0.105338244538E-01  0.112260851554E-01  0.119635623317E-01  0.127491715847E-01  0.135860113554E-01
  0.144773736803E-01  0.154267554815E-01  0.164378704030E-01  0.175146612008E-01  0.186613126965E-01
  0.198822652953E-01  0.211822290695E-01  0.225661984018E-01  0.240394671768E-01  0.256076445032E-01
  0.272766709413E-01  0.290528351993E-01  0.309427912552E-01  0.329535758427E-01  0.350926262322E-01
  0.373677982156E-01  0.397873841883E-01  0.423601312010E-01  0.450952588256E-01  0.480024766588E-01
  0.510920012491E-01  0.543745722051E-01  0.578614671991E-01  0.615645155393E-01  0.654961099373E-01
  0.696692160412E-01  0.740973792494E-01  0.787947282553E-01  0.837759747016E-01  0.890564082502E-01
  0.946518862903E-01  0.100578817419E+00  0.106854137739E+00  0.113495278917E+00  0.120520126848E+00
  0.127946969665E+00  0.135794433734E+00  0.144081406155E+00  0.152826942219E+00  0.162050156155E+00
  0.171770093439E+00  0.182005582869E+00  0.192775066584E+00  0.204096406210E+00  0.215986663348E+00
  0.228461852716E+00  0.241536666453E+00  0.255224168295E+00  0.269535456709E+00  0.284479296525E+00
  0.300061719173E+00  0.316285592399E+00  0.333150161218E+00  0.350650562943E+00  0.368777320414E+00
  0.387515819006E+00  0.406845774650E+00  0.426740701908E+00  0.447167393115E+00  0.468085421577E+00
  0.489446683800E+00  0.511194997542E+00  0.533265773929E+00  0.555585782724E+00  0.578073029845E+00
  0.600636764898E+00  0.623177633482E+00  0.645587983785E+00  0.667752328864E+00  0.689547954531E+00
  0.710845647169E+00  0.731510495632E+00  0.751402696292E+00  0.770378260129E+00  0.788289486016E+00
  0.804985026192E+00  0.820309330362E+00  0.834101217600E+00  0.846191295261E+00  0.856397928796E+00
  0.864521475325E+00  0.870336539173E+00  0.873582103935E+00  0.873949559495E+00  0.871105006274E+00
  0.865021092595E+00  0.855840667987E+00  0.843728577268E+00  0.828864639545E+00  0.811441849090E+00
  0.791664573505E+00  0.769746762634E+00  0.745910161802E+00  0.720382523647E+00  0.693395792709E+00
  0.665184222854E+00  0.635982395246E+00  0.606023098886E+00  0.575535062563E+00  0.544740558221E+00
  0.513852937806E+00  0.483074209252E+00  0.452592783463E+00  0.422581545081E+00  0.393196371811E+00
  0.364575199652E+00  0.336837675137E+00  0.310085378768E+00  0.284402549824E+00  0.259857199402E+00
  0.236502469846E+00  0.214378087407E+00  0.193511762404E+00  0.173920417393E+00  0.155611166683E+00
  0.138582023728E+00  0.122822367307E+00  0.108313241736E+00  0.950275919507E-01  0.829305369892E-01
  0.719797676995E-01  0.621261231878E-01  0.533143646293E-01  0.454841322281E-01  0.385710463986E-01
  0.325078995356E-01  0.272258795174E-01  0.226557684448E-01  0.187290676156E-01  0.153790101109E-01
  0.125414337586E-01  0.101554983292E-01  0.816424077747E-02  0.651497070560E-02
 ae wavefunction
  0.419428785250E-04  0.442281350287E-04  0.466333715057E-04  0.491651247965E-04  0.518302770826E-04
  0.546360747572E-04  0.575901483042E-04  0.607005332376E-04  0.639756921595E-04  0.674245379980E-04
  0.710564584885E-04  0.748813419687E-04  0.789096045554E-04  0.831522187831E-04  0.876207437784E-04
  0.923273570586E-04  0.972848880400E-04  0.102506853350E-03  0.108007494036E-03  0.113801814783E-03
  0.119905625241E-03  0.126335583571E-03  0.133109242346E-03  0.140245096910E-03  0.147762636355E-03
  0.155682397219E-03  0.164026020092E-03  0.172816309245E-03  0.182077295474E-03  0.191834302307E-03
  0.202114015763E-03  0.212944557842E-03  0.224355563956E-03  0.236378264482E-03  0.249045570677E-03
  0.262392165167E-03  0.276454597242E-03  0.291271383225E-03  0.306883112148E-03  0.323332557021E-03
  0.340664791984E-03  0.358927315613E-03  0.378170180719E-03  0.398446130940E-03  0.419810744473E-03
  0.442322585296E-03  0.466043362244E-03  0.491038096315E-03  0.517375296606E-03  0.545127145288E-03
  0.574369692039E-03  0.605183058385E-03  0.637651652393E-03  0.671864394196E-03  0.707914952824E-03
  0.745901994852E-03  0.785929445369E-03  0.828106761801E-03  0.872549221114E-03  0.919378220967E-03
  0.968721595355E-03  0.102071394533E-02  0.107549698534E-02  0.113321990584E-02  0.119403975268E-02
  0.125812182383E-02  0.132564008423E-02  0.139677759901E-02  0.147172698593E-02  0.155069088743E-02
  0.163388246291E-02  0.172152590161E-02  0.181385695672E-02  0.191112350105E-02  0.201358610465E-02
  0.212151863470E-02  0.223520887801E-02  0.235495918615E-02  0.248108714347E-02  0.261392625787E-02
  0.275382667425E-02  0.290115591036E-02  0.305629961464E-02  0.321966234540E-02  0.339166837067E-02
  0.357276248761E-02  0.376341086027E-02  0.396410187430E-02  0.417534700656E-02  0.439768170776E-02
  0.463166629543E-02  0.487788685440E-02  0.513695614144E-02  0.540951449019E-02  0.569623071198E-02
  0.599780298767E-02  0.631495974480E-02  0.664846051392E-02  0.699909675680E-02  0.736769265893E-02
  0.775510587740E-02  0.816222823438E-02  0.858998634568E-02  0.903934217225E-02  0.951129348177E-02
  0.100068742059E-01  0.105271546773E-01  0.110732417297E-01  0.116462786416E-01  0.122474449040E-01
  0.128779557891E-01  0.135390616968E-01  0.142320472523E-01  0.149582301279E-01  0.157189595572E-01
  0.165156145114E-01  0.173496015006E-01  0.182223519663E-01  0.191353192219E-01  0.200899749030E-01
  0.210878048799E-01  0.221303045875E-01  0.232189737227E-01  0.243553102565E-01  0.255408037077E-01
  0.267769276213E-01  0.280651311929E-01  0.294068299787E-01  0.308033956293E-01  0.322561445833E-01
  0.337663256573E-01  0.353351064677E-01  0.369635586187E-01  0.386526415950E-01  0.404031852957E-01
  0.422158711516E-01  0.440912117691E-01  0.460295290514E-01  0.480309307511E-01  0.500952854188E-01
  0.522221957195E-01  0.544109701007E-01  0.566605928102E-01  0.589696922755E-01  0.613365078777E-01
  0.637588551697E-01  0.662340896175E-01  0.687590689657E-01  0.713301143609E-01  0.739429704012E-01
  0.765927643137E-01  0.792739645044E-01  0.819803387658E-01  0.847049124734E-01  0.874399271459E-01
  0.901767997938E-01  0.929060835313E-01  0.956174299761E-01  0.982995540237E-01  0.100940201651E+00
  0.103526121491E+00  0.106043041008E+00  0.108475648247E+00  0.110807580223E+00  0.113021419155E+00
  0.115098697877E+00  0.117019915782E+00  0.118764566768E+00  0.120311180628E+00  0.121637379335E+00
  0.122719949675E+00  0.123534933624E+00  0.124057737853E+00  0.124263263676E+00  0.124126058712E+00
  0.123620491447E+00  0.122720949769E+00  0.121402064438E+00  0.119638958248E+00  0.117407521427E+00
  0.114684713522E+00  0.111448891700E+00  0.107680164964E+00  0.103360773329E+00  0.984754904945E-01
  0.930120478982E-01  0.869615774391E-01  0.803190693776E-01  0.730838411731E-01  0.652600121735E-01
  0.568569782048E-01  0.478898792097E-01  0.383800521774E-01  0.283554607093E-01  0.178510916948E-01
  0.690930876120E-02 -0.441984855275E-02 -0.160784315322E-01 -0.280004269251E-01 -0.401116915714E-01
 -0.523299888585E-01 -0.645651382708E-01 -0.767192885687E-01 -0.886873245236E-01 -0.100357416939E+00
 -0.111611725996E+00 -0.122327268404E+00 -0.132376958775E+00 -0.141630833802E+00 -0.149957463428E+00
 -0.157225545802E+00 -0.163305674914E+00 -0.168072263819E+00 -0.171405603644E+00 -0.173194036214E+00
 -0.173336214435E+00 -0.171743419241E+00 -0.168341896742E+00 -0.163075174808E+00 -0.155906314888E+00
 -0.146820051607E+00 -0.135824769740E+00 -0.122954265316E+00 -0.108269235514E+00 -0.918584408394E-01
 -0.738394834720E-01 -0.543591478119E-01 -0.335932535137E-01 -0.117459777288E-01  0.109513881381E-01
  0.342422707715E-01  0.578472452328E-01  0.814670510841E-01  0.104786153498E+00  0.127476776624E+00
  0.149203318449E+00  0.169627078161E+00  0.188411303821E+00  0.205226658498E+00  0.219757173788E+00
  0.231706523276E+00  0.240804226469E+00  0.246811463332E+00  0.249526397877E+00  0.248789001975E+00
  0.244485330397E+00  0.236551136280E+00  0.224974696752E+00  0.209798744302E+00  0.191121446492E+00
  0.169096418876E+00  0.143931782950E+00  0.115888295308E+00  0.852765816267E-01  0.524535146690E-01
  0.178177818252E-01 -0.181953037055E-01 -0.551196822604E-01 -0.924650370330E-01 -0.129723795867E+00
 -0.166378531101E+00 -0.201909625546E+00 -0.235803055057E+00 -0.267558116451E+00 -0.296694901257E+00
 -0.322761302900E+00 -0.345339374886E+00 -0.364050972259E+00 -0.378562779790E+00 -0.388590943787E+00
 -0.393905439457E+00 -0.394334042889E+00 -0.389765542905E+00 -0.380151815684E+00 -0.365508559462E+00
 -0.345914673547E+00 -0.321510368383E+00 -0.292494123215E+00 -0.259118617868E+00 -0.221685780663E+00
 -0.180541114025E+00 -0.136067474014E+00 -0.886784856672E-01 -0.388117692623E-01  0.130778605560E-01
  0.665250782191E-01  0.121060488563E+00  0.176216720377E+00  0.231534084907E+00  0.286565730636E+00
  0.340882241324E+00  0.394075641823E+00  0.445762790685E+00  0.495588154506E+00  0.543225969304E+00
  0.588381810823E+00  0.630793605575E+00  0.670232131405E+00  0.706501070258E+00  0.739436690093E+00
  0.768907241208E+00  0.794812151533E+00  0.817081092329E+00  0.835672965593E+00  0.850574831492E+00
  0.861800794651E+00  0.869390807984E+00  0.873409402065E+00  0.873944313612E+00  0.871105006274E+00
  0.865021092595E+00  0.855840667987E+00  0.843728577268E+00  0.828864639545E+00  0.811441849090E+00
  0.791664573505E+00  0.769746762634E+00  0.745910161802E+00  0.720382523647E+00  0.693395792709E+00
  0.665184222854E+00  0.635982395246E+00  0.606023098886E+00  0.575535062563E+00  0.544740558221E+00
  0.513852937806E+00  0.483074209252E+00  0.452592783463E+00  0.422581545081E+00  0.393196371811E+00
  0.364575199652E+00  0.336837675137E+00  0.310085378768E+00  0.284402549824E+00  0.259857199402E+00
  0.236502469846E+00  0.214378087407E+00  0.193511762404E+00  0.173920417393E+00  0.155611166683E+00
  0.138582023728E+00  0.122822367307E+00  0.108313241736E+00  0.950275919507E-01  0.829305369892E-01
  0.719797676995E-01  0.621261231878E-01  0.533143646293E-01  0.454841322281E-01  0.385710463986E-01
  0.325078995356E-01  0.272258795174E-01  0.226557684448E-01  0.187290676156E-01  0.153790101109E-01
  0.125414337586E-01  0.101554983292E-01  0.816424077747E-02  0.651497070560E-02
 pseudo wavefunction
  0.196277190568E-07  0.209249620851E-07  0.223079430161E-07  0.237823284733E-07  0.253541596009E-07
  0.270298768169E-07  0.288163462020E-07  0.307208876323E-07  0.327513047725E-07  0.349159170498E-07
  0.372235937425E-07  0.396837903206E-07  0.423065871889E-07  0.451027309901E-07  0.480836786385E-07
  0.512616442629E-07  0.546496492534E-07  0.582615756148E-07  0.621122228469E-07  0.662173685837E-07
  0.705938332408E-07  0.752595489354E-07  0.802336329609E-07  0.855364661186E-07  0.911897762254E-07
  0.972167271417E-07  0.103642013683E-06  0.110491962802E-06  0.117794641467E-06  0.125579971654E-06
  0.133879852957E-06  0.142728293290E-06  0.152161548229E-06  0.162218269569E-06  0.172939663694E-06
  0.184369660416E-06  0.196555092972E-06  0.209545889919E-06  0.223395279711E-06  0.238160008797E-06
  0.253900574133E-06  0.270681471062E-06  0.288571457578E-06  0.307643836051E-06  0.327976753581E-06
  0.349653522191E-06  0.372762960194E-06  0.397399756114E-06  0.423664856661E-06  0.451665880352E-06
  0.481517558462E-06  0.513342205127E-06  0.547270218508E-06  0.583440615086E-06  0.622001599264E-06
  0.663111170620E-06  0.706937771288E-06  0.753660976134E-06  0.803472228543E-06  0.856575624830E-06
  0.913188750509E-06  0.973543571814E-06  0.103788738616E-05  0.110648383541E-05  0.117961398611E-05
  0.125757748115E-05  0.134069376745E-05  0.142930340493E-05  0.152376946187E-05  0.162447900251E-05
  0.173184467306E-05  0.184630639237E-05  0.196833315453E-05  0.209842495045E-05  0.223711481651E-05
  0.238497101859E-05  0.254259938048E-05  0.271064576613E-05  0.288979872596E-05  0.308079231813E-05
  0.328440911616E-05  0.350148341545E-05  0.373290465163E-05  0.397962104484E-05  0.424264348496E-05
  0.452304967344E-05  0.482198853905E-05  0.514068494536E-05  0.548044470932E-05  0.584265995165E-05
  0.622881480064E-05  0.664049147310E-05  0.707937675708E-05  0.754726892306E-05  0.804608509191E-05
  0.857786908977E-05  0.914479982203E-05  0.974920020080E-05  0.103935466623E-04  0.110804793132E-04
  0.118128127479E-04  0.125935475797E-04  0.134258827354E-04  0.143132285614E-04  0.152592207961E-04
  0.162677354659E-04  0.173429047656E-04  0.184891339881E-04  0.197111195728E-04  0.210138683471E-04
  0.224027180388E-04  0.238833591448E-04  0.254618582442E-04  0.271446828524E-04  0.289387279172E-04
  0.308513440662E-04  0.328903677206E-04  0.350641531983E-04  0.373816069390E-04  0.398522239907E-04
  0.424861269062E-04  0.452941072108E-04  0.482876696088E-04  0.514790791114E-04  0.548814112781E-04
  0.585086057776E-04  0.623755234867E-04  0.664980073621E-04  0.708929473333E-04  0.755783494821E-04
  0.805734097921E-04  0.858985927702E-04  0.915757152607E-04  0.976280357961E-04  0.104080349848E-03
  0.110959091373E-03  0.118292441056E-03  0.126110441714E-03  0.134445121310E-03  0.143330624097E-03
  0.152803350414E-03  0.162902105721E-03  0.173668259466E-03  0.185145914439E-03  0.197382087312E-03
  0.210426901088E-03  0.224333790253E-03  0.239159719470E-03  0.254965416700E-03  0.271815621700E-03
  0.289779350926E-03  0.308930179896E-03  0.329346544183E-03  0.351112060259E-03  0.374315867483E-03
  0.399052992650E-03  0.425424738550E-03  0.453539098151E-03  0.483511196054E-03  0.515463759046E-03
  0.549527617629E-03  0.585842240580E-03  0.624556304697E-03  0.665828302042E-03  0.709827187130E-03
  0.756733066693E-03  0.806737934789E-03  0.860046456232E-03  0.916876801494E-03  0.977461536441E-03
  0.104204857048E-02  0.111090216694E-02  0.118430401967E-02  0.126255440029E-02  0.134597338057E-02
  0.143490213481E-02  0.152970432755E-02  0.163076759195E-02  0.173850510482E-02  0.185335726446E-02
  0.197579347807E-02  0.210631406559E-02  0.224545228759E-02  0.239377650512E-02  0.255189247990E-02
  0.272044582393E-02  0.290012460791E-02  0.309166213859E-02  0.329583991577E-02  0.351349078026E-02
  0.374550226484E-02  0.399282016087E-02  0.425645231417E-02  0.453747266424E-02  0.483702554201E-02
  0.515633024207E-02  0.549668588616E-02  0.585947659562E-02  0.624617699175E-02  0.665835804359E-02
  0.709769328406E-02  0.756596541626E-02  0.806507333305E-02  0.859703957375E-02  0.916401824359E-02
  0.976830342218E-02  0.104123380886E-01  0.110987235921E-01  0.118302296988E-01  0.126098052444E-01
  0.134405894273E-01  0.143259237732E-01  0.152693648081E-01  0.162746974732E-01  0.173459493191E-01
  0.184874055156E-01  0.197036247157E-01  0.209994558095E-01  0.223800556084E-01  0.238509074939E-01
  0.254178410711E-01  0.270870528589E-01  0.288651280539E-01  0.307590633969E-01  0.327762911711E-01
  0.349247043569E-01  0.372126829614E-01  0.396491215352E-01  0.422434578835E-01  0.450057029656E-01
  0.479464719683E-01  0.510770165266E-01  0.544092580453E-01  0.579558220625E-01  0.617300735694E-01
  0.657461531801E-01  0.700190140138E-01  0.745644591190E-01  0.793991792311E-01  0.845407906103E-01
  0.900078726564E-01  0.958200049379E-01  0.101997803209E+00  0.108562953907E+00  0.115538246553E+00
  0.122947603350E+00  0.130816105208E+00  0.139170013266E+00  0.148036784850E+00  0.157445082675E+00
  0.167424775895E+00  0.178006931432E+00  0.189223793794E+00  0.201108751365E+00  0.213696286872E+00
  0.227021909470E+00  0.241122065557E+00  0.256034025098E+00  0.271795739865E+00  0.288445669614E+00
  0.306022571774E+00  0.324565249805E+00  0.344112254881E+00  0.364701535080E+00  0.386370025764E+00
  0.409153174300E+00  0.433084391810E+00  0.458194424130E+00  0.484510633728E+00  0.512056183951E+00
  0.540849116681E+00  0.570901314318E+00  0.602217336972E+00  0.634793125987E+00  0.668614565372E+00
  0.703655893487E+00  0.739877958594E+00  0.777226313521E+00  0.815629147031E+00  0.854995052433E+00
  0.895210637800E+00  0.936137986910E+00  0.977611985837E+00  0.101943753718E+01  0.106138669232E+01
  0.110319574201E+01  0.114456231707E+01  0.118514256422E+01  0.122454847727E+01  0.126234548028E+01
  0.129805037862E+01  0.133112981361E+01  0.136099937882E+01  0.138702357903E+01  0.140851683718E+01
  0.142474577950E+01  0.143493305333E+01  0.143826295640E+01  0.143388917906E+01  0.142094498093E+01
  0.139855614121E+01  0.136585703477E+01  0.132201019432E+01  0.126622971965E+01  0.119780888754E+01
  0.111615229527E+01  0.102081283327E+01  0.911533719850E+00  0.788295730610E+00  0.651401449061E+00
  0.501749540596E+00  0.340666829807E+00  0.169767658592E+00  0.000000000000E+00  0.000000000000E+00
  0.000000000000E+00  0.000000000000E+00  0.000000000000E+00  0.000000000000E+00  0.000000000000E+00
  0.000000000000E+00  0.000000000000E+00  0.000000000000E+00  0.000000000000E+00  0.000000000000E+00
  0.000000000000E+00  0.000000000000E+00  0.000000000000E+00  0.000000000000E+00  0.000000000000E+00
  0.000000000000E+00  0.000000000000E+00  0.000000000000E+00  0.000000000000E+00  0.000000000000E+00
  0.000000000000E+00  0.000000000000E+00  0.000000000000E+00  0.000000000000E+00  0.000000000000E+00
  0.000000000000E+00  0.000000000000E+00  0.000000000000E+00  0.000000000000E+00  0.000000000000E+00
  0.000000000000E+00  0.000000000000E+00  0.000000000000E+00  0.000000000000E+00  0.000000000000E+00
  0.000000000000E+00  0.000000000000E+00  0.000000000000E+00  0.000000000000E+00  0.000000000000E+00
  0.000000000000E+00  0.000000000000E+00  0.000000000000E+00  0.000000000000E+00
 ae wavefunction
  0.849429196046E-04  0.895710338532E-04  0.944421321125E-04  0.995694528258E-04  0.104966933823E-03
  0.110649250535E-03  0.116631856258E-03  0.122931024555E-03  0.129563893929E-03  0.136548514887E-03
  0.143903899515E-03  0.151650073722E-03  0.159808132280E-03  0.168400296815E-03  0.177449976925E-03
  0.186981834575E-03  0.197021851957E-03  0.207597403005E-03  0.218737328755E-03  0.230472016761E-03
  0.242833484792E-03  0.255855469031E-03  0.269573517019E-03  0.284025085612E-03  0.299249644191E-03
  0.315288783442E-03  0.332186329972E-03  0.349988467080E-03  0.368743862027E-03  0.388503800117E-03
  0.409322325971E-03  0.431256392369E-03  0.454366017048E-03  0.478714447874E-03  0.504368336834E-03
  0.531397923290E-03  0.559877226980E-03  0.589884251272E-03  0.621501197187E-03  0.654814688744E-03
  0.689916010203E-03  0.726901355795E-03  0.765872092586E-03  0.806935037098E-03  0.850202746404E-03
  0.895793824374E-03  0.943833243834E-03  0.994452685394E-03  0.104779089376E-02  0.110399405231E-02
  0.116321617692E-02  0.122561952974E-02  0.129137505398E-02  0.136066283069E-02  0.143367255835E-02
  0.151060405644E-02  0.159166779392E-02  0.167708544383E-02  0.176709046486E-02  0.186192871130E-02
  0.196185907222E-02  0.206715414126E-02  0.217810091805E-02  0.229500154251E-02  0.241817406316E-02
  0.254795324068E-02  0.268469138788E-02  0.282875924713E-02  0.298054690664E-02  0.314046475639E-02
  0.330894448504E-02  0.348644011867E-02  0.367342910239E-02  0.387041342561E-02  0.407792079184E-02
  0.429650583358E-02  0.452675137284E-02  0.476926972774E-02  0.502470406523E-02  0.529372980003E-02
  0.557705603939E-02  0.587542707328E-02  0.618962390906E-02  0.652046584941E-02  0.686881211201E-02
  0.723556348894E-02  0.762166404322E-02  0.802810283946E-02  0.845591570498E-02  0.890618701707E-02
  0.938005151124E-02  0.987869610469E-02  0.104033617281E-01  0.109553451578E-01  0.115360008403E-01
  0.121467426977E-01  0.127890459037E-01  0.134644486177E-01  0.141745536614E-01  0.149210301233E-01
  0.157056148728E-01  0.165301139639E-01  0.173964039075E-01  0.183064327879E-01  0.192622211960E-01
  0.202658629525E-01  0.213195255868E-01  0.224254505383E-01  0.235859530413E-01  0.248034216531E-01
  0.260803173793E-01  0.274191723481E-01  0.288225879819E-01  0.302932326081E-01  0.318338384487E-01
  0.334471979236E-01  0.351361591964E-01  0.369036208895E-01  0.387525258857E-01  0.406858541349E-01
  0.427066143734E-01  0.448178346610E-01  0.470225516374E-01  0.493237983912E-01  0.517245908317E-01
  0.542279124504E-01  0.568366973521E-01  0.595538114338E-01  0.623820315854E-01  0.653240227842E-01
  0.683823129529E-01  0.715592654506E-01  0.748570490655E-01  0.782776053825E-01  0.818226133988E-01
  0.854934512685E-01  0.892911550638E-01  0.932163744502E-01  0.972693251847E-01  0.101449738364E+00
  0.105756806366E+00  0.110189125452E+00  0.114744635026E+00  0.119420553576E+00  0.124213311359E+00
  0.129118479938E+00  0.134130698725E+00  0.139243598741E+00  0.144449723851E+00  0.149740449835E+00
  0.155105901682E+00  0.160534869623E+00  0.166014724466E+00  0.171531332905E+00  0.177068973578E+00
  0.182610254718E+00  0.188136034364E+00  0.193625344195E+00  0.199055318189E+00  0.204401127411E+00
  0.209635922448E+00  0.214730785181E+00  0.219654691837E+00  0.224374489520E+00  0.228854888643E+00
  0.233058473939E+00  0.236945736861E+00  0.240475132288E+00  0.243603162481E+00  0.246284491259E+00
  0.248472091290E+00  0.250117427375E+00  0.251170678501E+00  0.251581001348E+00  0.251296837826E+00
  0.250266269032E+00  0.248437417838E+00  0.245758902027E+00  0.242180339546E+00  0.237652906950E+00
  0.232129951596E+00  0.225567657377E+00  0.217925763051E+00  0.209168331196E+00  0.199264564822E+00
  0.188189667383E+00  0.175925740659E+00  0.162462713441E+00  0.147799292430E+00  0.131943925019E+00
  0.114915761892E+00  0.967456055435E-01  0.774768289692E-01  0.571662469695E-01  0.358849207257E-01
  0.137188746701E-01 -0.923029679186E-02 -0.328449563262E-01 -0.569911088513E-01 -0.815182694127E-01
 -0.106259537812E+00 -0.131031902904E+00 -0.155636798012E+00 -0.179860927668E+00 -0.203477385515E+00
 -0.226247083822E+00 -0.247920515982E+00 -0.268239873193E+00 -0.286941532836E+00 -0.303758927102E+00
 -0.318425785453E+00 -0.330679728440E+00 -0.340266178329E+00 -0.346942546345E+00 -0.350482651652E+00
 -0.350681319538E+00 -0.347359095497E+00 -0.340367001271E+00 -0.329591250049E+00 -0.314957830809E+00
 -0.296436865277E+00 -0.274046634757E+00 -0.247857168314E+00 -0.217993279396E+00 -0.184636935557E+00
 -0.148028846586E+00 -0.108469160667E+00 -0.663171667340E-01 -0.219899141606E-01  0.240403216777E-01
  0.712497769746E-01  0.119068159188E+00  0.166884805262E+00  0.214055956386E+00  0.259913002662E+00
  0.303771514722E+00  0.344940923850E+00  0.382734868022E+00  0.416482403619E+00  0.445540221106E+00
  0.469305521800E+00  0.487228763194E+00  0.498825623369E+00  0.503687977808E+00  0.501493868561E+00
  0.492016362836E+00  0.475131072252E+00  0.450822064552E+00  0.419185951987E+00  0.380434035447E+00
  0.334892468474E+00  0.283000459092E+00  0.225306555744E+00  0.162463078180E+00  0.952187650613E-01
  0.244097227585E-01 -0.490512225340E-01 -0.124186643070E+00 -0.199967941255E+00 -0.275329902671E+00
 -0.349186142831E+00 -0.420445183435E+00 -0.488026856786E+00 -0.550878691748E+00 -0.607991876347E+00
 -0.658416367108E+00 -0.701274778326E+00 -0.735774919667E+00 -0.761221194347E+00 -0.777025287954E+00
 -0.782716388641E+00 -0.777950636859E+00 -0.762519034272E+00 -0.736353029957E+00 -0.699527364670E+00
 -0.652260133641E+00 -0.594910233122E+00 -0.527972415075E+00 -0.452070195288E+00 -0.367946892554E+00
 -0.276455116036E+00 -0.178545045777E+00 -0.752518596728E-01  0.323173571709E-01  0.142996915228E+00
  0.255575769792E+00  0.368810494893E+00  0.481437803929E+00  0.592186481207E+00  0.699788633247E+00
  0.802990206294E+00  0.900560761585E+00  0.991302537003E+00  0.107405886736E+01  0.114772206483E+01
  0.121124090731E+01  0.126362791128E+01  0.130396660895E+01  0.133141908076E+01  0.134523402022E+01
  0.134475561199E+01  0.132943348125E+01  0.129883391612E+01  0.125265248960E+01  0.119072810781E+01
  0.111305846215E+01  0.101981671926E+01  0.911369298424E+00  0.788294471425E+00  0.651401449061E+00
  0.501749540596E+00  0.340666829807E+00  0.169767658592E+00  0.000000000000E+00  0.000000000000E+00
  0.000000000000E+00  0.000000000000E+00  0.000000000000E+00  0.000000000000E+00  0.000000000000E+00
  0.000000000000E+00  0.000000000000E+00  0.000000000000E+00  0.000000000000E+00  0.000000000000E+00
  0.000000000000E+00  0.000000000000E+00  0.000000000000E+00  0.000000000000E+00  0.000000000000E+00
  0.000000000000E+00  0.000000000000E+00  0.000000000000E+00  0.000000000000E+00  0.000000000000E+00
  0.000000000000E+00  0.000000000000E+00  0.000000000000E+00  0.000000000000E+00  0.000000000000E+00
  0.000000000000E+00  0.000000000000E+00  0.000000000000E+00  0.000000000000E+00  0.000000000000E+00
  0.000000000000E+00  0.000000000000E+00  0.000000000000E+00  0.000000000000E+00  0.000000000000E+00
  0.000000000000E+00  0.000000000000E+00  0.000000000000E+00  0.000000000000E+00  0.000000000000E+00
  0.000000000000E+00  0.000000000000E+00  0.000000000000E+00  0.000000000000E+00
 End of Dataset
  PAW_PBE Os 17Jan2003                   
   8.00000000000000     
 parameters from PSCTR are:
   VRHFIN =Os: 6s5d
   LEXCH  = PE
   EATOM  =   417.5999 eV,   30.6927 Ry

   TITEL  = PAW_PBE Os 17Jan2003
   LULTRA =        F    use ultrasoft PP ?
   IUNSCR =        1    unscreen: 0-lin 1-nonlin 2-no
   RPACOR =    2.250    partial core radius
   POMASS =  190.200; ZVAL   =    8.000    mass and valenz
   RCORE  =    2.700    outmost cutoff radius
   RWIGS  =    2.670; RWIGS  =    1.413    wigner-seitz radius (au A)
   ENMAX  =  228.022; ENMIN  =  171.017 eV
   RCLOC  =    2.004    cutoff for local pot
   LCOR   =        T    correct aug charges
   LPAW   =        T    paw PP
   EAUG   =  365.080
   DEXC   =    0.000
   RMAX   =    2.766    core radius for proj-oper
   RAUG   =    1.300    factor for augmentation sphere
   RDEP   =    2.738    radius for radial grids
   RDEPT  =    2.220    core radius for aug-charge
 
   Atomic configuration
   16 entries
     n  l   j            E        occ.
     1  0  0.50    -73844.2437   2.0000
     2  0  0.50    -12856.6893   2.0000
     2  1  1.50    -11191.7995   6.0000
     3  0  0.50     -2990.1422   2.0000
     3  1  1.50     -2501.5221   6.0000
     3  2  2.50     -1956.5818  10.0000
     4  0  0.50      -629.1606   2.0000
     4  1  1.50      -468.9548   6.0000
     4  2  2.50      -270.2868  10.0000
     4  3  3.50       -49.5699  14.0000
     5  0  0.50       -89.1521   2.0000
     5  1  1.50       -48.6063   6.0000
     5  2  2.50        -4.7055   7.0000
     6  0  0.50        -5.4288   1.0000
     6  1  1.50        -2.7212   0.0000
     5  3  2.50        -6.8029   0.0000
   Description
     l       E           TYP  RCUT    TYP  RCUT
     2     -4.7055230     23  2.500
     2     -6.0661056     23  2.500
     0     -5.4288441     23  2.500
     0      3.7338294     23  2.500
     1     -2.7211652     23  2.700
     1     27.2116520     23  2.700
   Error from kinetic energy argument (eV)
   NDATA  =      100
   STEP   =   20.000   1.050
  158.      155.      154.      150.      148.      145.      141.      139.
  135.      130.      128.      124.      119.      114.      110.      105.
  100.      95.6      90.9      83.9      79.3      74.8      68.2      63.9
  59.8      53.8      48.2      44.6      39.5      34.8      30.5      26.5
  22.8      19.6      16.6      14.0      11.0      9.12      6.97      5.62
  4.16      3.00      2.12      1.46     0.973     0.630     0.395     0.211
 0.127     0.703E-01 0.465E-01 0.399E-01 0.381E-01 0.379E-01 0.359E-01 0.321E-01
 0.269E-01 0.200E-01 0.137E-01 0.900E-02 0.597E-02 0.442E-02 0.384E-02 0.373E-02
 0.368E-02 0.340E-02 0.286E-02 0.219E-02 0.149E-02 0.106E-02 0.820E-03 0.752E-03
 0.742E-03 0.701E-03 0.588E-03 0.455E-03 0.324E-03 0.247E-03 0.220E-03 0.216E-03
 0.201E-03 0.165E-03 0.123E-03 0.919E-04 0.815E-04 0.796E-04 0.727E-04 0.573E-04
 0.426E-04 0.360E-04 0.348E-04 0.322E-04 0.252E-04 0.194E-04 0.173E-04 0.167E-04
 0.141E-04 0.109E-04 0.931E-05 0.902E-05
END of PSCTR-controll parameters
 local part
   69.9198615774202     
  0.13530388E+03  0.13528057E+03  0.13521061E+03  0.13509411E+03  0.13493120E+03
  0.13472208E+03  0.13446701E+03  0.13416627E+03  0.13382020E+03  0.13342921E+03
  0.13299370E+03  0.13251416E+03  0.13199108E+03  0.13142500E+03  0.13081650E+03
  0.13016618E+03  0.12947470E+03  0.12874273E+03  0.12797099E+03  0.12716023E+03
  0.12631126E+03  0.12542491E+03  0.12450204E+03  0.12354356E+03  0.12255044E+03
  0.12152365E+03  0.12046421E+03  0.11937318E+03  0.11825164E+03  0.11710071E+03
  0.11592153E+03  0.11471526E+03  0.11348309E+03  0.11222622E+03  0.11094588E+03
  0.10964330E+03  0.10831974E+03  0.10697647E+03  0.10561475E+03  0.10423589E+03
  0.10284116E+03  0.10143188E+03  0.10000934E+03  0.98574852E+02  0.97129729E+02
  0.95675273E+02  0.94212788E+02  0.92743568E+02  0.91268901E+02  0.89790064E+02
  0.88308320E+02  0.86824916E+02  0.85341086E+02  0.83858040E+02  0.82376971E+02
  0.80899049E+02  0.79425419E+02  0.77957201E+02  0.76495490E+02  0.75041352E+02
  0.73595823E+02  0.72159909E+02  0.70734583E+02  0.69320784E+02  0.67919420E+02
  0.66531358E+02  0.65157432E+02  0.63798436E+02  0.62455127E+02  0.61128221E+02
  0.59818397E+02  0.58526290E+02  0.57252498E+02  0.55997578E+02  0.54762044E+02
  0.53546371E+02  0.52350996E+02  0.51176312E+02  0.50022674E+02  0.48890396E+02
  0.47779756E+02  0.46690988E+02  0.45624293E+02  0.44579829E+02  0.43557720E+02
  0.42558054E+02  0.41580881E+02  0.40626217E+02  0.39694045E+02  0.38784316E+02
  0.37896948E+02  0.37031829E+02  0.36188820E+02  0.35367750E+02  0.34568427E+02
  0.33790629E+02  0.33034113E+02  0.32298612E+02  0.31583839E+02  0.30889484E+02
  0.30215222E+02  0.29560708E+02  0.28925582E+02  0.28309469E+02  0.27711980E+02
  0.27132715E+02  0.26571262E+02  0.26027201E+02  0.25500102E+02  0.24989532E+02
  0.24495048E+02  0.24016207E+02  0.23552559E+02  0.23103654E+02  0.22669043E+02
  0.22248274E+02  0.21840897E+02  0.21446465E+02  0.21064533E+02  0.20694661E+02
  0.20336413E+02  0.19989356E+02  0.19653068E+02  0.19327131E+02  0.19011134E+02
  0.18704675E+02  0.18407362E+02  0.18118811E+02  0.17838648E+02  0.17566510E+02
  0.17302042E+02  0.17044904E+02  0.16794763E+02  0.16551300E+02  0.16314206E+02
  0.16083184E+02  0.15857948E+02  0.15638224E+02  0.15423750E+02  0.15214276E+02
  0.15009562E+02  0.14809381E+02  0.14613516E+02  0.14421764E+02  0.14233929E+02
  0.14049829E+02  0.13869292E+02  0.13692157E+02  0.13518272E+02  0.13347496E+02
  0.13179697E+02  0.13014751E+02  0.12852545E+02  0.12692973E+02  0.12535938E+02
  0.12381350E+02  0.12229126E+02  0.12079192E+02  0.11931479E+02  0.11785925E+02
  0.11642472E+02  0.11501072E+02  0.11361677E+02  0.11224248E+02  0.11088748E+02
  0.10955145E+02  0.10823412E+02  0.10693522E+02  0.10565456E+02  0.10439193E+02
  0.10314716E+02  0.10192012E+02  0.10071067E+02  0.99518706E+01  0.98344122E+01
  0.97186830E+01  0.96046749E+01  0.94923805E+01  0.93817926E+01  0.92729045E+01
  0.91657095E+01  0.90602006E+01  0.89563707E+01  0.88542124E+01  0.87537174E+01
  0.86548770E+01  0.85576816E+01  0.84621207E+01  0.83681829E+01  0.82758556E+01
  0.81851253E+01  0.80959775E+01  0.80083963E+01  0.79223650E+01  0.78378657E+01
  0.77548793E+01  0.76733860E+01  0.75933645E+01  0.75147929E+01  0.74376480E+01
  0.73619060E+01  0.72875420E+01  0.72145301E+01  0.71428439E+01  0.70724559E+01
  0.70033381E+01  0.69354619E+01  0.68687981E+01  0.68033170E+01  0.67389886E+01
  0.66757826E+01  0.66136684E+01  0.65526155E+01  0.64925932E+01  0.64335711E+01
  0.63755187E+01  0.63184058E+01  0.62622024E+01  0.62068790E+01  0.61524062E+01
  0.60987554E+01  0.60458981E+01  0.59938066E+01  0.59424539E+01  0.58918135E+01
  0.58418595E+01  0.57925672E+01  0.57439123E+01  0.56958716E+01  0.56484229E+01
  0.56015448E+01  0.55552169E+01  0.55094199E+01  0.54641354E+01  0.54193460E+01
  0.53750354E+01  0.53311882E+01  0.52877901E+01  0.52448275E+01  0.52022882E+01
  0.51601606E+01  0.51184342E+01  0.50770993E+01  0.50361474E+01  0.49955705E+01
  0.49553619E+01  0.49155154E+01  0.48760258E+01  0.48368886E+01  0.47981003E+01
  0.47596577E+01  0.47215586E+01  0.46838012E+01  0.46463843E+01  0.46093071E+01
  0.45725696E+01  0.45361716E+01  0.45001139E+01  0.44643971E+01  0.44290224E+01
  0.43939910E+01  0.43593045E+01  0.43249645E+01  0.42909728E+01  0.42573312E+01
  0.42240418E+01  0.41911063E+01  0.41585267E+01  0.41263046E+01  0.40944419E+01
  0.40629398E+01  0.40317997E+01  0.40010227E+01  0.39706094E+01  0.39405604E+01
  0.39108757E+01  0.38815554E+01  0.38525989E+01  0.38240053E+01  0.37957737E+01
  0.37679025E+01  0.37403898E+01  0.37132336E+01  0.36864313E+01  0.36599801E+01
  0.36338766E+01  0.36081174E+01  0.35826986E+01  0.35576157E+01  0.35328642E+01
  0.35084391E+01  0.34843351E+01  0.34605466E+01  0.34370679E+01  0.34138927E+01
  0.33910149E+01  0.33684278E+01  0.33461249E+01  0.33240994E+01  0.33023443E+01
  0.32808526E+01  0.32596173E+01  0.32386313E+01  0.32178874E+01  0.31973784E+01
  0.31770971E+01  0.31570366E+01  0.31371896E+01  0.31175492E+01  0.30981085E+01
  0.30788607E+01  0.30597993E+01  0.30409177E+01  0.30222098E+01  0.30036695E+01
  0.29852912E+01  0.29670693E+01  0.29489985E+01  0.29310739E+01  0.29132909E+01
  0.28956450E+01  0.28781321E+01  0.28607484E+01  0.28434903E+01  0.28263545E+01
  0.28093381E+01  0.27924383E+01  0.27756528E+01  0.27589794E+01  0.27424163E+01
  0.27259620E+01  0.27096152E+01  0.26933750E+01  0.26772405E+01  0.26612113E+01
  0.26452873E+01  0.26294682E+01  0.26137543E+01  0.25981460E+01  0.25826437E+01
  0.25672479E+01  0.25519595E+01  0.25367793E+01  0.25217082E+01  0.25067472E+01
  0.24918973E+01  0.24771598E+01  0.24625356E+01  0.24480260E+01  0.24336321E+01
  0.24193551E+01  0.24051963E+01  0.23911565E+01  0.23772370E+01  0.23634387E+01
  0.23497624E+01  0.23362089E+01  0.23227789E+01  0.23094728E+01  0.22962911E+01
  0.22832341E+01  0.22703018E+01  0.22574942E+01  0.22448111E+01  0.22322523E+01
  0.22198173E+01  0.22075055E+01  0.21953163E+01  0.21832488E+01  0.21713020E+01
  0.21594748E+01  0.21477660E+01  0.21361741E+01  0.21246978E+01  0.21133353E+01
  0.21020850E+01  0.20909449E+01  0.20799132E+01  0.20689878E+01  0.20581665E+01
  0.20474474E+01  0.20368281E+01  0.20263064E+01  0.20158802E+01  0.20055470E+01
  0.19953048E+01  0.19851513E+01  0.19750841E+01  0.19651012E+01  0.19552002E+01
  0.19453791E+01  0.19356357E+01  0.19259680E+01  0.19163738E+01  0.19068512E+01
  0.18973984E+01  0.18880134E+01  0.18786946E+01  0.18694404E+01  0.18602491E+01
  0.18511194E+01  0.18420499E+01  0.18330394E+01  0.18240868E+01  0.18151910E+01
  0.18063511E+01  0.17975663E+01  0.17888358E+01  0.17801589E+01  0.17715351E+01
  0.17629638E+01  0.17544445E+01  0.17459770E+01  0.17375608E+01  0.17291959E+01
  0.17208819E+01  0.17126188E+01  0.17044065E+01  0.16962451E+01  0.16881346E+01
  0.16800751E+01  0.16720667E+01  0.16641095E+01  0.16562036E+01  0.16483491E+01
  0.16405463E+01  0.16327951E+01  0.16250958E+01  0.16174482E+01  0.16098526E+01
  0.16023090E+01  0.15948173E+01  0.15873775E+01  0.15799896E+01  0.15726536E+01
  0.15653693E+01  0.15581367E+01  0.15509555E+01  0.15438256E+01  0.15367468E+01
  0.15297187E+01  0.15227410E+01  0.15158135E+01  0.15089356E+01  0.15021069E+01
  0.14953270E+01  0.14885952E+01  0.14819112E+01  0.14752743E+01  0.14686839E+01
  0.14621395E+01  0.14556405E+01  0.14491863E+01  0.14427763E+01  0.14364099E+01
  0.14300865E+01  0.14238056E+01  0.14175666E+01  0.14113688E+01  0.14052118E+01
  0.13990949E+01  0.13930177E+01  0.13869795E+01  0.13809800E+01  0.13750185E+01
  0.13690947E+01  0.13632082E+01  0.13573586E+01  0.13515456E+01  0.13457688E+01
  0.13400280E+01  0.13343230E+01  0.13286536E+01  0.13230196E+01  0.13174210E+01
  0.13118574E+01  0.13063290E+01  0.13008355E+01  0.12953768E+01  0.12899531E+01
  0.12845641E+01  0.12792099E+01  0.12738904E+01  0.12686056E+01  0.12633556E+01
  0.12581403E+01  0.12529597E+01  0.12478139E+01  0.12427028E+01  0.12376264E+01
  0.12325847E+01  0.12275776E+01  0.12226051E+01  0.12176669E+01  0.12127630E+01
  0.12078932E+01  0.12030571E+01  0.11982547E+01  0.11934856E+01  0.11887494E+01
  0.11840458E+01  0.11793745E+01  0.11747350E+01  0.11701269E+01  0.11655497E+01
  0.11610029E+01  0.11564860E+01  0.11519984E+01  0.11475396E+01  0.11431089E+01
  0.11387057E+01  0.11343292E+01  0.11299789E+01  0.11256539E+01  0.11213536E+01
  0.11170772E+01  0.11128241E+01  0.11085934E+01  0.11043846E+01  0.11001968E+01
  0.10960296E+01  0.10918821E+01  0.10877538E+01  0.10836441E+01  0.10795525E+01
  0.10754783E+01  0.10714212E+01  0.10673806E+01  0.10633561E+01  0.10593473E+01
  0.10553539E+01  0.10513756E+01  0.10474121E+01  0.10434633E+01  0.10395291E+01
  0.10356093E+01  0.10317040E+01  0.10278132E+01  0.10239371E+01  0.10200757E+01
  0.10162293E+01  0.10123982E+01  0.10085827E+01  0.10047830E+01  0.10009996E+01
  0.99723293E+00  0.99348334E+00  0.98975134E+00  0.98603740E+00  0.98234204E+00
  0.97866578E+00  0.97500918E+00  0.97137279E+00  0.96775719E+00  0.96416292E+00
  0.96059057E+00  0.95704068E+00  0.95351379E+00  0.95001040E+00  0.94653101E+00
  0.94307604E+00  0.93964592E+00  0.93624098E+00  0.93286155E+00  0.92950789E+00
  0.92618021E+00  0.92287867E+00  0.91960338E+00  0.91635438E+00  0.91313169E+00
  0.90993523E+00  0.90676491E+00  0.90362054E+00  0.90050189E+00  0.89740867E+00
  0.89434053E+00  0.89129703E+00  0.88827771E+00  0.88528202E+00  0.88230937E+00
  0.87935911E+00  0.87643053E+00  0.87352290E+00  0.87063544E+00  0.86776735E+00
  0.86491780E+00  0.86208592E+00  0.85927086E+00  0.85647174E+00  0.85368767E+00
  0.85091777E+00  0.84816115E+00  0.84541694E+00  0.84268428E+00  0.83996229E+00
  0.83725016E+00  0.83454706E+00  0.83185222E+00  0.82916489E+00  0.82648437E+00
  0.82381001E+00  0.82114120E+00  0.81847740E+00  0.81581813E+00  0.81316297E+00
  0.81051157E+00  0.80786364E+00  0.80521898E+00  0.80257742E+00  0.79993888E+00
  0.79730334E+00  0.79467083E+00  0.79204148E+00  0.78941543E+00  0.78679291E+00
  0.78417422E+00  0.78155968E+00  0.77894971E+00  0.77634476E+00  0.77374533E+00
  0.77115199E+00  0.76856533E+00  0.76598600E+00  0.76341467E+00  0.76085205E+00
  0.75829885E+00  0.75575581E+00  0.75322367E+00  0.75070317E+00  0.74819506E+00
  0.74570006E+00  0.74321888E+00  0.74075222E+00  0.73830075E+00  0.73586511E+00
  0.73344591E+00  0.73104375E+00  0.72865916E+00  0.72629264E+00  0.72394466E+00
  0.72161561E+00  0.71930585E+00  0.71701566E+00  0.71474528E+00  0.71249487E+00
  0.71026453E+00  0.70805427E+00  0.70586408E+00  0.70369382E+00  0.70154334E+00
  0.69941238E+00  0.69730065E+00  0.69520779E+00  0.69313339E+00  0.69107697E+00
  0.68903803E+00  0.68701600E+00  0.68501027E+00  0.68302020E+00  0.68104509E+00
  0.67908423E+00  0.67713685E+00  0.67520218E+00  0.67327940E+00  0.67136770E+00
  0.66946624E+00  0.66757418E+00  0.66569068E+00  0.66381491E+00  0.66194606E+00
  0.66008334E+00  0.65822596E+00  0.65637319E+00  0.65452432E+00  0.65267869E+00
  0.65083567E+00  0.64899467E+00  0.64715516E+00  0.64531663E+00  0.64347864E+00
  0.64164080E+00  0.63980277E+00  0.63796426E+00  0.63612507E+00  0.63428501E+00
  0.63244398E+00  0.63060196E+00  0.62875897E+00  0.62691509E+00  0.62507048E+00
  0.62322534E+00  0.62137995E+00  0.61953462E+00  0.61768972E+00  0.61584567E+00
  0.61400292E+00  0.61216196E+00  0.61032332E+00  0.60848754E+00  0.60665521E+00
  0.60482693E+00  0.60300330E+00  0.60118498E+00  0.59937259E+00  0.59756680E+00
  0.59576827E+00  0.59397764E+00  0.59219556E+00  0.59042268E+00  0.58865960E+00
  0.58690693E+00  0.58516522E+00  0.58343502E+00  0.58171681E+00  0.58001105E+00
  0.57831815E+00  0.57663848E+00  0.57497237E+00  0.57332007E+00  0.57168182E+00
  0.57005779E+00  0.56844810E+00  0.56685284E+00  0.56527203E+00  0.56370564E+00
  0.56215360E+00  0.56061579E+00  0.55909202E+00  0.55758206E+00  0.55608564E+00
  0.55460242E+00  0.55313204E+00  0.55167407E+00  0.55022806E+00  0.54879352E+00
  0.54736991E+00  0.54595670E+00  0.54455330E+00  0.54315914E+00  0.54177360E+00
  0.54039607E+00  0.53902594E+00  0.53766259E+00  0.53630539E+00  0.53495372E+00
  0.53360698E+00  0.53226457E+00  0.53092588E+00  0.52959036E+00  0.52825743E+00
  0.52692658E+00  0.52559730E+00  0.52426912E+00  0.52294161E+00  0.52161436E+00
  0.52028703E+00  0.51895930E+00  0.51763090E+00  0.51630161E+00  0.51497127E+00
  0.51363972E+00  0.51230689E+00  0.51097274E+00  0.50963725E+00  0.50830047E+00
  0.50696248E+00  0.50562339E+00  0.50428337E+00  0.50294261E+00  0.50160133E+00
  0.50025981E+00  0.49891835E+00  0.49757729E+00  0.49623698E+00  0.49489782E+00
  0.49356022E+00  0.49222461E+00  0.49089144E+00  0.48956117E+00  0.48823426E+00
  0.48691118E+00  0.48559239E+00  0.48427836E+00  0.48296952E+00  0.48166634E+00
  0.48036924E+00  0.47907863E+00  0.47779491E+00  0.47651847E+00  0.47524968E+00
  0.47398886E+00  0.47273635E+00  0.47149242E+00  0.47025734E+00  0.46903134E+00
  0.46781461E+00  0.46660731E+00  0.46540957E+00  0.46422147E+00  0.46304304E+00
  0.46187431E+00  0.46071524E+00  0.45956577E+00  0.45842579E+00  0.45729519E+00
  0.45617378E+00  0.45506140E+00  0.45395781E+00  0.45286279E+00  0.45177605E+00
  0.45069732E+00  0.44962628E+00  0.44856260E+00  0.44750593E+00  0.44645591E+00
  0.44541216E+00  0.44437428E+00  0.44334187E+00  0.44231452E+00  0.44129182E+00
  0.44027336E+00  0.43925875E+00  0.43824757E+00  0.43723946E+00  0.43623402E+00
  0.43523091E+00  0.43422978E+00  0.43323031E+00  0.43223219E+00  0.43123515E+00
  0.43023890E+00  0.42924322E+00  0.42824787E+00  0.42725266E+00  0.42625742E+00
  0.42526198E+00  0.42426624E+00  0.42327009E+00  0.42227347E+00  0.42127635E+00
  0.42027871E+00  0.41928058E+00  0.41828200E+00  0.41728306E+00  0.41628385E+00
  0.41528451E+00  0.41428517E+00  0.41328601E+00  0.41228720E+00  0.41128895E+00
  0.41029146E+00  0.40929496E+00  0.40829968E+00  0.40730587E+00  0.40631378E+00
  0.40532367E+00  0.40433580E+00  0.40335045E+00  0.40236789E+00  0.40138841E+00
  0.40041226E+00  0.39943973E+00  0.39847107E+00  0.39750654E+00  0.39654639E+00
  0.39559083E+00  0.39464010E+00  0.39369437E+00  0.39275384E+00  0.39181867E+00
  0.39088900E+00  0.38996496E+00  0.38904666E+00  0.38813419E+00  0.38722762E+00
  0.38632703E+00  0.38543243E+00  0.38454386E+00  0.38366132E+00  0.38278479E+00
  0.38191422E+00  0.38104957E+00  0.38019075E+00  0.37933767E+00  0.37849021E+00
  0.37764823E+00  0.37681159E+00  0.37598013E+00  0.37515366E+00  0.37433200E+00
  0.37351497E+00  0.37270236E+00  0.37189397E+00  0.37108958E+00  0.37028900E+00
  0.36949200E+00  0.36869837E+00  0.36790790E+00  0.36712037E+00  0.36633556E+00
  0.36555327E+00  0.36477327E+00  0.36399538E+00  0.36321937E+00  0.36244507E+00
  0.36167228E+00  0.36090085E+00  0.36013060E+00  0.35936140E+00  0.35859312E+00
  0.35782563E+00  0.35705884E+00  0.35629267E+00  0.35552704E+00  0.35476188E+00
  0.35399717E+00  0.35323285E+00  0.35246891E+00  0.35170534E+00  0.35094215E+00
  0.35017933E+00  0.34941694E+00  0.34865499E+00  0.34789355E+00  0.34713268E+00
  0.34637246E+00  0.34561297E+00  0.34485432E+00  0.34409663E+00  0.34333999E+00
  0.34258455E+00  0.34183042E+00  0.34107774E+00  0.34032664E+00  0.33957725E+00
  0.33882972E+00  0.33808415E+00  0.33734070E+00  0.33659949E+00  0.33586064E+00
  0.33512428E+00  0.33439053E+00  0.33365952E+00  0.33293137E+00  0.33220617E+00
  0.33148405E+00  0.33076510E+00  0.33004942E+00  0.32933709E+00  0.32862819E+00
  0.32792277E+00  0.32722090E+00  0.32652261E+00  0.32582793E+00  0.32513688E+00
  0.32444947E+00  0.32376570E+00  0.32308557E+00  0.32240905E+00  0.32173613E+00
  0.32106676E+00  0.32040093E+00  0.31973857E+00  0.31907964E+00  0.31842407E+00
  0.31777181E+00  0.31712277E+00  0.31647687E+00  0.31583402E+00  0.31519413E+00
  0.31455709E+00  0.31392279E+00  0.31329113E+00  0.31266199E+00  0.31203525E+00
  0.31141082E+00  0.31078858E+00  0.31016841E+00  0.30955022E+00  0.30893390E+00
  0.30831935E+00  0.30770647E+00  0.30709517E+00  0.30648535E+00  0.30587693E+00
  0.30526981E+00  0.30466392E+00  0.30405916E+00  0.30345547E+00  0.30285278E+00
  0.30225103E+00  0.30165015E+00  0.30105010E+00  0.30045085E+00  0.29985236E+00
  0.29925462E+00  0.29865760E+00  0.29806131E+00  0.29746574E+00  0.29687090E+00
 gradient corrections used for XC
           5
 core charge-density (partial)
  0.39452934E+01  0.39436977E+01  0.39389141E+01  0.39309539E+01  0.39198356E+01
  0.39055852E+01  0.38882358E+01  0.38678276E+01  0.38444080E+01  0.38180307E+01
  0.37887562E+01  0.37566515E+01  0.37217893E+01  0.36842483E+01  0.36441127E+01
  0.36014717E+01  0.35564195E+01  0.35090547E+01  0.34594800E+01  0.34078020E+01
  0.33541306E+01  0.32985786E+01  0.32412617E+01  0.31822974E+01  0.31218053E+01
  0.30599063E+01  0.29967225E+01  0.29323763E+01  0.28669908E+01  0.28006886E+01
  0.27335921E+01  0.26658226E+01  0.25975004E+01  0.25287443E+01  0.24596712E+01
  0.23903959E+01  0.23210307E+01  0.22516855E+01  0.21824669E+01  0.21134786E+01
  0.20448208E+01  0.19765903E+01  0.19088798E+01  0.18417786E+01  0.17753715E+01
  0.17097394E+01  0.16449588E+01  0.15811020E+01  0.15182367E+01  0.14564264E+01
  0.13957299E+01  0.13362016E+01  0.12778914E+01  0.12208447E+01  0.11651024E+01
  0.11107013E+01  0.10576736E+01  0.10060472E+01  0.95584611E+00  0.90708997E+00
  0.85979463E+00  0.81397202E+00  0.76963038E+00  0.72677430E+00  0.68540494E+00
  0.64552013E+00  0.60711450E+00  0.57017969E+00  0.53470445E+00  0.50067481E+00
  0.46807426E+00  0.43688390E+00  0.40708257E+00  0.37864706E+00  0.35155224E+00
  0.32577121E+00  0.30127549E+00  0.27803515E+00  0.25601896E+00  0.23519456E+00
  0.21552857E+00  0.19698678E+00  0.17953422E+00  0.16313537E+00  0.14775423E+00
  0.13335446E+00  0.11989951E+00  0.10735272E+00  0.95677416E-01  0.84837044E-01
  0.74795235E-01  0.65515912E-01  0.56963367E-01  0.49102345E-01  0.41898114E-01
  0.35316534E-01  0.29324121E-01  0.23888101E-01  0.18976464E-01  0.14558007E-01
  0.10602379E-01  0.70801155E-02  0.39626675E-02  0.12224317E-02 -0.11672297E-02
 -0.32319702E-02 -0.49964465E-02 -0.64843080E-02 -0.77181916E-02 -0.87197197E-02
 -0.95095009E-02 -0.10107135E-01 -0.10531222E-01 -0.10799367E-01 -0.10928203E-01
 -0.10933394E-01 -0.10829665E-01 -0.10630811E-01 -0.10349728E-01 -0.99984281E-02
 -0.95880696E-02 -0.91289811E-02 -0.86306888E-02 -0.81019451E-02 -0.75507576E-02
 -0.69844182E-02 -0.64095343E-02 -0.58320588E-02 -0.52573211E-02 -0.46900582E-02
 -0.41344458E-02 -0.35941289E-02 -0.30722530E-02 -0.25714938E-02 -0.20940880E-02
 -0.16418621E-02 -0.12162616E-02 -0.81837934E-03 -0.44898291E-03 -0.10854152E-03
  0.20274804E-03  0.48493627E-03  0.73829683E-03  0.96330321E-03  0.11606065E-02
  0.13310140E-02  0.14754693E-02  0.15950323E-02  0.16908619E-02  0.17641982E-02
  0.18163465E-02  0.18486623E-02  0.18625372E-02  0.18593857E-02  0.18406333E-02
  0.18077053E-02  0.17620168E-02  0.17049632E-02  0.16379123E-02  0.15621967E-02
  0.14791069E-02  0.13898863E-02  0.12957256E-02  0.11977588E-02  0.10970595E-02
  0.99463857E-03  0.89144138E-03  0.78834654E-03  0.68616475E-03  0.58563834E-03
  0.48744126E-03  0.39217948E-03  0.30039187E-03  0.21255140E-03  0.12906675E-03
  0.50284172E-04 -0.23510393E-04 -0.92088881E-04 -0.15527853E-03 -0.21295911E-03
 -0.26505998E-03 -0.31155707E-03 -0.35246977E-03 -0.38785767E-03 -0.41781738E-03
 -0.44247925E-03 -0.46200414E-03 -0.47658013E-03 -0.48641942E-03 -0.49175511E-03
 -0.49283820E-03 -0.48993459E-03 -0.48332223E-03 -0.47328835E-03 -0.46012682E-03
 -0.44413566E-03 -0.42561464E-03 -0.40486310E-03 -0.38217780E-03 -0.35785107E-03
 -0.33216898E-03 -0.30540974E-03 -0.27784224E-03 -0.24972474E-03 -0.22130369E-03
 -0.19281277E-03 -0.16447198E-03 -0.13648700E-03 -0.10904853E-03 -0.82331926E-04
 -0.56496859E-04 -0.31687139E-04 -0.80306511E-05  0.14360601E-04  0.35390344E-04
  0.54977787E-04  0.73057289E-04  0.89577935E-04  0.10450305E-03  0.11780963E-03
  0.12948772E-03  0.13953976E-03  0.14797985E-03  0.15483298E-03  0.16013429E-03
  0.16392821E-03  0.16626766E-03  0.16721321E-03  0.16683222E-03  0.16519801E-03
  0.16238902E-03  0.15848797E-03  0.15358108E-03  0.14775725E-03  0.14110731E-03
  0.13372328E-03  0.12569766E-03  0.11712275E-03  0.10809004E-03  0.98689590E-04
  0.89009481E-04  0.79135303E-04  0.69149687E-04  0.59131875E-04  0.49157344E-04
  0.39297466E-04  0.29619219E-04  0.20184942E-04  0.11052129E-04  0.22732733E-05
 -0.61042532E-05 -0.14038276E-04 -0.21491857E-04 -0.28433294E-04 -0.34836087E-04
 -0.40678868E-04 -0.45945306E-04 -0.50623973E-04 -0.54708190E-04 -0.58195847E-04
 -0.61089199E-04 -0.63394643E-04 -0.65122478E-04 -0.66286651E-04 -0.66904487E-04
 -0.66996410E-04 -0.66585659E-04 -0.65697993E-04 -0.64361397E-04 -0.62605785E-04
 -0.60462703E-04 -0.57965034E-04 -0.55146708E-04 -0.52042423E-04 -0.48687360E-04
 -0.45116927E-04 -0.41366493E-04 -0.37471150E-04 -0.33465476E-04 -0.29383323E-04
 -0.25257607E-04 -0.21120125E-04 -0.17001379E-04 -0.12930424E-04 -0.89347238E-05
 -0.50400336E-05 -0.12702910E-05  0.23524710E-05  0.58081967E-05  0.90788621E-05
  0.12148515E-04  0.15003297E-04  0.17631455E-04  0.20023328E-04  0.22171336E-04
  0.24069937E-04  0.25715587E-04  0.27106680E-04  0.28243479E-04  0.29128037E-04
  0.29764111E-04  0.30157066E-04  0.30313770E-04  0.30242491E-04  0.29952776E-04
  0.29455339E-04  0.28761937E-04  0.27885247E-04  0.26838742E-04  0.25636564E-04
  0.24293404E-04  0.22824372E-04  0.21244881E-04  0.19570524E-04  0.17816963E-04
  0.15999812E-04  0.14134537E-04  0.12236349E-04  0.10320110E-04  0.84002455E-05
  0.64906567E-05  0.46046474E-05  0.27548532E-05  0.95317887E-06 -0.78925627E-06
 -0.24621662E-05 -0.40561383E-05 -0.55626658E-05 -0.69741736E-05 -0.82840356E-05
 -0.94865859E-05 -0.10577123E-04 -0.11551906E-04 -0.12408145E-04 -0.13143990E-04
 -0.13758502E-04 -0.14251632E-04 -0.14624190E-04 -0.14877801E-04 -0.15014875E-04
 -0.15038551E-04 -0.14952659E-04 -0.14761662E-04 -0.14470606E-04 -0.14085063E-04
 -0.13611073E-04 -0.13055090E-04 -0.12423916E-04 -0.11724645E-04 -0.10964608E-04
 -0.10151304E-04 -0.92923510E-05 -0.83954260E-05 -0.74682082E-05 -0.65183280E-05
 -0.55533144E-05 -0.45805470E-05 -0.36072095E-05 -0.26402468E-05 -0.16863250E-05
 -0.75179444E-06  0.15734369E-06  0.10354670E-05  0.18773583E-05  0.26782283E-05
  0.34337342E-05  0.41399955E-05  0.47936050E-05  0.53916373E-05  0.59316526E-05
  0.64116984E-05  0.68303061E-05  0.71864865E-05  0.74797200E-05  0.77099456E-05
  0.78775461E-05  0.79833314E-05  0.80285189E-05  0.80147120E-05  0.79438766E-05
  0.78183161E-05  0.76406445E-05  0.74137583E-05  0.71408078E-05  0.68251670E-05
  0.64704033E-05  0.60802464E-05  0.56585580E-05  0.52093003E-05  0.47365057E-05
  0.42442467E-05  0.37366062E-05  0.32176494E-05  0.26913955E-05  0.21617921E-05
  0.16326891E-05  0.11078159E-05  0.59075885E-06  0.84940599E-07 -0.40639825E-06
 -0.88021630E-06 -0.13336863E-05 -0.17642085E-05 -0.21694212E-05 -0.25472109E-05
 -0.28957186E-05 -0.32133458E-05 -0.34987570E-05 -0.37508822E-05 -0.39689154E-05
 -0.41523130E-05 -0.43007899E-05 -0.44143131E-05 -0.44930957E-05 -0.45375870E-05
 -0.45484636E-05 -0.45266174E-05 -0.44731431E-05 -0.43893254E-05 -0.42766240E-05
 -0.41366587E-05 -0.39711936E-05 -0.37821206E-05 -0.35714428E-05 -0.33412573E-05
 -0.30937383E-05 -0.28311194E-05 -0.25556768E-05 -0.22697122E-05 -0.19755363E-05
 -0.16754523E-05 -0.13717403E-05 -0.10666422E-05 -0.76234729E-06 -0.46097823E-06
 -0.16457865E-06  0.12489910E-06  0.40560480E-06  0.67580043E-06  0.93386907E-06
  0.11783228E-05  0.14078093E-05  0.16211178E-05  0.18171834E-05  0.19950905E-05
  0.21540750E-05  0.22935257E-05  0.24129841E-05  0.25121438E-05  0.25908483E-05
  0.26490880E-05  0.26869965E-05  0.27048458E-05  0.27030407E-05  0.26821125E-05
  0.26427117E-05  0.25856009E-05  0.25116460E-05  0.24218077E-05  0.23171326E-05
  0.21987432E-05  0.20678284E-05  0.19256338E-05  0.17734511E-05  0.16126081E-05
  0.14444591E-05  0.12703739E-05  0.10917288E-05  0.90989622E-06  0.72623586E-06
  0.54208525E-06  0.35875117E-06  0.17750142E-06 -0.44297821E-09 -0.17391507E-06
 -0.34180865E-06 -0.50308434E-06 -0.65677517E-06 -0.80199138E-06 -0.93792465E-06
 -0.10638517E-05 -0.11791370E-05 -0.12832352E-05 -0.13756924E-05 -0.14561474E-05
 -0.15243314E-05 -0.15800678E-05 -0.16232714E-05 -0.16539462E-05 -0.16721836E-05
 -0.16781594E-05 -0.16721305E-05 -0.16544314E-05 -0.16254697E-05 -0.15857216E-05
 -0.15357267E-05 -0.14760833E-05 -0.14074423E-05 -0.13305016E-05 -0.12460001E-05
 -0.11547116E-05 -0.10574389E-05 -0.95500694E-06 -0.84825707E-06 -0.73804065E-06
 -0.62521292E-06 -0.51062701E-06 -0.39512806E-06 -0.27954761E-06 -0.16469811E-06
 -0.51367772E-07  0.59684289E-07  0.16773267E-06  0.27208986E-06  0.37211016E-06
  0.46719314E-06  0.55678674E-06  0.64038996E-06  0.71755516E-06  0.78788992E-06
  0.85105844E-06  0.90678258E-06  0.95484246E-06  0.99507663E-06  0.10273818E-05
  0.10517124E-05  0.10680793E-05  0.10765487E-05  0.10772400E-05  0.10703246E-05
  0.10560224E-05  0.10346001E-05  0.10063680E-05  0.97167659E-06  0.93091364E-06
  0.88450041E-06  0.83288809E-06  0.77655398E-06  0.71599758E-06  0.65173669E-06
  0.58430337E-06  0.51423995E-06  0.44209507E-06  0.36841972E-06  0.29376339E-06
  0.21867028E-06  0.14367568E-06  0.69302442E-07 -0.39423721E-08 -0.75570636E-07
 -0.14511613E-06 -0.21213730E-06 -0.27621974E-06 -0.33697853E-06 -0.39406019E-06
 -0.44714451E-06 -0.49594598E-06 -0.54021508E-06 -0.57973918E-06 -0.61434326E-06
 -0.64389027E-06 -0.66828130E-06 -0.68745543E-06 -0.70138934E-06 -0.71009667E-06
 -0.71362715E-06 -0.71206547E-06 -0.70552997E-06 -0.69417109E-06 -0.67816967E-06
 -0.65773503E-06 -0.63310297E-06 -0.60453350E-06 -0.57230862E-06 -0.53672985E-06
 -0.49811575E-06 -0.45679939E-06 -0.41312568E-06 -0.36744878E-06 -0.32012947E-06
 -0.27153245E-06 -0.22202381E-06 -0.17196844E-06 -0.12172750E-06 -0.71656030E-07
 -0.22100621E-07  0.26602832E-07  0.74131222E-07  0.12017621E-06  0.16444605E-06
  0.20666728E-06  0.24658624E-06  0.28397042E-06  0.31860964E-06  0.35031708E-06
  0.37893004E-06  0.40431064E-06  0.42634626E-06  0.44494978E-06  0.46005972E-06
  0.47164011E-06  0.47968024E-06  0.48419425E-06  0.48522052E-06  0.48282092E-06
  0.47707991E-06  0.46810352E-06  0.45601820E-06  0.44096951E-06  0.42312075E-06
  0.40265150E-06  0.37975601E-06  0.35464161E-06  0.32752701E-06  0.29864056E-06
  0.26821846E-06  0.23650300E-06  0.20374075E-06  0.17018079E-06  0.13607291E-06
  0.10166588E-06  0.67205748E-07  0.32934185E-07 -0.91309451E-09 -0.34107857E-07
 -0.66430783E-07 -0.97672816E-07 -0.12763641E-06 -0.15613668E-06 -0.18300245E-06
 -0.20807713E-06 -0.23121959E-06 -0.25230481E-06 -0.27122442E-06 -0.28788716E-06
 -0.30221919E-06 -0.31416426E-06 -0.32368378E-06 -0.33075673E-06 -0.33537950E-06
 -0.33756559E-06 -0.33734517E-06 -0.33476458E-06 -0.32988572E-06 -0.32278529E-06
 -0.31355402E-06 -0.30229576E-06 -0.28912653E-06 -0.27417349E-06 -0.25757385E-06
 -0.23947374E-06 -0.22002702E-06 -0.19939409E-06 -0.17774063E-06 -0.15523642E-06
 -0.13205400E-06 -0.10836751E-06 -0.84351384E-07 -0.60179200E-07 -0.36022446E-07
 -0.12049397E-07  0.11576004E-07  0.34695194E-07  0.57155996E-07  0.78813553E-07
  0.99531203E-07  0.11918127E-06  0.13764580E-06  0.15481719E-06  0.17059874E-06
  0.18490515E-06  0.19766290E-06  0.20881053E-06  0.21829886E-06  0.22609114E-06
  0.23216304E-06  0.23650260E-06  0.23911016E-06  0.23999803E-06  0.23919030E-06
  0.23672240E-06  0.23264067E-06  0.22700185E-06  0.21987251E-06  0.21132842E-06
  0.20145384E-06  0.19034080E-06  0.17808836E-06  0.16480175E-06  0.15059155E-06
  0.13557286E-06  0.11986438E-06  0.10358756E-06  0.86865709E-07  0.69823082E-07
  0.52584031E-07  0.35272132E-07  0.18009343E-07  0.91518692E-09 -0.15894031E-07
 -0.32305976E-07 -0.48212994E-07 -0.63512774E-07 -0.78108967E-07 -0.91911753E-07
 -0.10483835E-06 -0.11681347E-06 -0.12776970E-06 -0.13764786E-06 -0.14639725E-06
 -0.15397588E-06 -0.16035058E-06 -0.16549712E-06 -0.16940021E-06 -0.17205344E-06
 -0.17345921E-06 -0.17362853E-06 -0.17258081E-06 -0.17034363E-06 -0.16695233E-06
 -0.16244970E-06 -0.15688553E-06 -0.15031619E-06 -0.14280405E-06 -0.13441704E-06
 -0.12522802E-06 -0.11531424E-06 -0.10475669E-06 -0.93639526E-07 -0.82049386E-07
 -0.70074785E-07 -0.57805457E-07 -0.45331714E-07 -0.32743815E-07 -0.20131339E-07
 -0.75825747E-08  0.48160646E-08  0.16980614E-07  0.28830097E-07  0.40287037E-07
  0.51277937E-07  0.61733726E-07  0.71590164E-07  0.80788207E-07  0.89274338E-07
  0.97000843E-07  0.10392605E-06  0.11001452E-06  0.11523720E-06  0.11957150E-06
  0.12300138E-06  0.12551733E-06  0.12711633E-06  0.12780178E-06  0.12758339E-06
  0.12647698E-06  0.12450428E-06  0.12169271E-06  0.11807507E-06  0.11368924E-06
  0.10857786E-06  0.10278792E-06  0.96370388E-07  0.89379794E-07  0.81873792E-07
  0.73912717E-07  0.65559119E-07  0.56877301E-07  0.47932840E-07  0.38792119E-07
  0.29521853E-07  0.20188619E-07  0.10858401E-07  0.15961393E-08 -0.75347010E-08
 -0.16472548E-07 -0.25158120E-07 -0.33534799E-07 -0.41548985E-07 -0.49150419E-07
 -0.56292477E-07 -0.62932444E-07 -0.69031741E-07 -0.74556138E-07 -0.79475918E-07
 -0.83766016E-07 -0.87406121E-07 -0.90380747E-07 -0.92679263E-07 -0.94295897E-07
 -0.95229698E-07 -0.95484472E-07 -0.95068683E-07 -0.93995326E-07 -0.92281765E-07
 -0.89949548E-07 -0.87024199E-07 -0.83534974E-07 -0.79514609E-07 -0.74999037E-07
 -0.70027094E-07 -0.64640203E-07 -0.58882053E-07 -0.52798260E-07 -0.46436021E-07
 -0.39843766E-07 -0.33070805E-07 -0.26166970E-07 -0.19182265E-07 -0.12166516E-07
 -0.51690278E-08  0.17617477E-08  0.85785362E-08  0.15235551E-07  0.21688786E-07
  0.27896299E-07  0.33818468E-07  0.39418231E-07  0.44661308E-07  0.49516398E-07
  0.53955349E-07  0.57953310E-07  0.61488853E-07  0.64544074E-07  0.67104662E-07
  0.69159951E-07  0.70702937E-07  0.71730274E-07  0.72242247E-07  0.72242714E-07
  0.71739030E-07  0.70741945E-07  0.69265481E-07  0.67326785E-07  0.64945972E-07
  0.62145936E-07  0.58952155E-07  0.55392477E-07  0.51496895E-07  0.47297304E-07
  0.42827258E-07  0.38121711E-07  0.33216756E-07  0.28149359E-07  0.22957089E-07
  0.17677852E-07  0.12349621E-07  0.70101727E-08  0.16968298E-08 -0.35537927E-08
 -0.87060299E-08 -0.13725402E-07 -0.18578834E-07 -0.23234870E-07 -0.27663862E-07
 -0.31838155E-07 -0.35732249E-07 -0.39322943E-07 -0.42589470E-07 -0.45513600E-07
 -0.48079734E-07 -0.50274978E-07 -0.52089189E-07 -0.53515012E-07 -0.54547890E-07
 -0.55186058E-07 -0.55430516E-07 -0.55284983E-07 -0.54755836E-07 -0.53852026E-07
 -0.52584985E-07 -0.50968507E-07 -0.49018626E-07 -0.46753471E-07 -0.44193109E-07
 -0.41359387E-07 -0.38275748E-07 -0.34967053E-07 -0.31459386E-07 -0.27779858E-07
 -0.23956407E-07 -0.20017586E-07 -0.15992368E-07 -0.11909929E-07 -0.77994502E-08
 -0.36899125E-08  0.39010067E-09  0.44125963E-08  0.83503575E-08  0.12177122E-07
  0.15867750E-07  0.19398385E-07  0.22746602E-07  0.25891542E-07  0.28814034E-07
  0.31496712E-07  0.33924104E-07  0.36082716E-07  0.37961102E-07  0.39549913E-07
  0.40841933E-07  0.41832106E-07  0.42517535E-07  0.42897480E-07  0.42973331E-07
  0.42748569E-07  0.42228719E-07  0.41421281E-07  0.40335653E-07  0.38983040E-07
  0.37376355E-07  0.35530105E-07  0.33460270E-07  0.31184172E-07  0.28720342E-07
  0.26088368E-07  0.23308752E-07  0.20402756E-07  0.17392238E-07  0.14299501E-07
  0.11147127E-07  0.79578206E-08  0.47542475E-08  0.15588792E-08 -0.16061605E-08
 -0.47192441E-08 -0.77593840E-08 -0.10706370E-07 -0.13540898E-07 -0.16244694E-07
 -0.18800626E-07 -0.21192809E-07 -0.23406698E-07 -0.25429173E-07 -0.27248609E-07
 -0.28854941E-07 -0.30239712E-07 -0.31396111E-07 -0.32318997E-07 -0.33004920E-07
 -0.33452116E-07 -0.33660501E-07 -0.33631651E-07 -0.33368769E-07 -0.32876641E-07
 -0.32161586E-07 -0.31231390E-07 -0.30095233E-07 -0.28763613E-07 -0.27248249E-07
 -0.25561990E-07 -0.23718709E-07 -0.21733197E-07 -0.19621046E-07 -0.17398530E-07
 -0.15082489E-07 -0.12690200E-07 -0.10239253E-07 -0.77474278E-08 -0.52325644E-08
 -0.27124419E-08 -0.20465468E-09  0.22735071E-08  0.47051736E-08  0.70740068E-08
  0.93643071E-08  0.11561114E-07  0.13650303E-07  0.15618667E-07  0.17454005E-07
  0.19145187E-07  0.20682222E-07  0.22056311E-07  0.23259896E-07  0.24286693E-07
  0.25131725E-07  0.25791337E-07  0.26263204E-07  0.26546335E-07  0.26641062E-07
  0.26549019E-07  0.26273117E-07  0.25817510E-07  0.25187546E-07  0.24389723E-07
  0.23431620E-07  0.22321842E-07  0.21069939E-07  0.19686336E-07  0.18182242E-07
  0.16569572E-07  0.14860847E-07  0.13069106E-07  0.11207808E-07  0.92907321E-08
  0.73318799E-08  0.53453746E-08  0.33453625E-08  0.13459141E-08 -0.63907211E-09
 kinetic energy density (partial)
  0.29948652E+03  0.29936712E+03  0.29900919E+03  0.29841357E+03  0.29758160E+03
  0.29651520E+03  0.29521678E+03  0.29368931E+03  0.29193626E+03  0.28996157E+03
  0.28776969E+03  0.28536553E+03  0.28275444E+03  0.27994221E+03  0.27693502E+03
  0.27373944E+03  0.27036240E+03  0.26681117E+03  0.26309331E+03  0.25921668E+03
  0.25518939E+03  0.25101977E+03  0.24671636E+03  0.24228786E+03  0.23774311E+03
  0.23309106E+03  0.22834076E+03  0.22350131E+03  0.21858182E+03  0.21359142E+03
  0.20853920E+03  0.20343421E+03  0.19828541E+03  0.19310168E+03  0.18789174E+03
  0.18266418E+03  0.17742743E+03  0.17218972E+03  0.16695907E+03  0.16174328E+03
  0.15654989E+03  0.15138622E+03  0.14625929E+03  0.14117584E+03  0.13614233E+03
  0.13116490E+03  0.12624939E+03  0.12140133E+03  0.11662590E+03  0.11192797E+03
  0.10731210E+03  0.10278247E+03  0.98342973E+02  0.93997146E+02  0.89748202E+02
  0.85599029E+02  0.81552190E+02  0.77609929E+02  0.73774178E+02  0.70046565E+02
  0.66428416E+02  0.62920768E+02  0.59524374E+02  0.56239716E+02  0.53067010E+02
  0.50006220E+02  0.47057068E+02  0.44219043E+02  0.41491414E+02  0.38873240E+02
  0.36363383E+02  0.33960520E+02  0.31663152E+02  0.29469619E+02  0.27378111E+02
  0.25386680E+02  0.23493248E+02  0.21695627E+02  0.19991520E+02  0.18378542E+02
  0.16854221E+02  0.15416019E+02  0.14061335E+02  0.12787518E+02  0.11591877E+02
  0.10471687E+02  0.94242048E+01  0.84466709E+01  0.75363214E+01  0.66903953E+01
  0.59061414E+01  0.51808260E+01  0.45117390E+01  0.38962007E+01  0.33315671E+01
  0.28152357E+01  0.23446502E+01  0.19173051E+01  0.15307502E+01  0.11825938E+01
  0.87050664E+00  0.59222448E+00  0.34555093E+00  0.12835964E+00 -0.61403769E-01
 -0.22572015E+00 -0.36649557E+00 -0.48556036E+00 -0.58466853E+00 -0.66549734E+00
 -0.72964730E+00 -0.77864227E+00 -0.81392990E+00 -0.83688228E+00 -0.84879676E+00
 -0.85089701E+00 -0.84433424E+00 -0.83018859E+00 -0.80947068E+00 -0.78312328E+00
 -0.75202311E+00 -0.71698278E+00 -0.67875278E+00 -0.63802358E+00 -0.59542783E+00
 -0.55154253E+00 -0.50689136E+00 -0.46194700E+00 -0.41713340E+00 -0.37282824E+00
 -0.32936521E+00 -0.28703644E+00 -0.24609479E+00 -0.20675624E+00 -0.16920217E+00
 -0.13358163E+00 -0.10001360E+00 -0.68589160E-01 -0.39373624E-01 -0.12408643E-01
  0.12285790E-01  0.34709373E-01  0.54879610E-01  0.72829990E-01  0.88608238E-01
  0.10227465E+00  0.11390050E+00  0.12356651E+00  0.13136143E+00  0.13738070E+00
  0.14172511E+00  0.14449968E+00  0.14581250E+00  0.14577368E+00  0.14449443E+00
  0.14208615E+00  0.13865962E+00  0.13432427E+00  0.12918750E+00  0.12335412E+00
  0.11692578E+00  0.11000050E+00  0.10267230E+00  0.95030858E-01  0.87161167E-01
  0.79143352E-01  0.71052468E-01  0.62958361E-01  0.54925577E-01  0.47013317E-01
  0.39275421E-01  0.31760397E-01  0.24511476E-01  0.17566704E-01  0.10959058E-01
  0.47165869E-02 -0.11374262E-02 -0.65842788E-02 -0.11609651E-01 -0.16203389E-01
 -0.20359281E-01 -0.24074819E-01 -0.27350954E-01 -0.30191851E-01 -0.32604626E-01
 -0.34599099E-01 -0.36187536E-01 -0.37384392E-01 -0.38206061E-01 -0.38670630E-01
 -0.38797636E-01 -0.38607830E-01 -0.38122953E-01 -0.37365512E-01 -0.36358575E-01
 -0.35125567E-01 -0.33690088E-01 -0.32075728E-01 -0.30305904E-01 -0.28403709E-01
 -0.26391764E-01 -0.24292092E-01 -0.22125999E-01 -0.19913969E-01 -0.17675569E-01
 -0.15429371E-01 -0.13192879E-01 -0.10982474E-01 -0.88133628E-02 -0.66995464E-02
 -0.46537906E-02 -0.26876115E-02 -0.81126852E-03  0.96623347E-03  0.26371337E-02
  0.41948970E-02  0.56341888E-02  0.69508425E-02  0.81418218E-02  0.92051769E-02
  0.10139996E-01  0.10946355E-01  0.11625256E-01  0.12178574E-01  0.12608991E-01
  0.12919933E-01  0.13115508E-01  0.13200434E-01  0.13179976E-01  0.13059878E-01
  0.12846299E-01  0.12545743E-01  0.12164998E-01  0.11711073E-01  0.11191137E-01
  0.10612458E-01  0.99823508E-02  0.93081196E-02  0.85970096E-02  0.78561586E-02
  0.70925526E-02  0.63129849E-02  0.55240184E-02  0.47319514E-02  0.39427871E-02
  0.31622064E-02  0.23955448E-02  0.16477720E-02  0.92347592E-03  0.22684925E-03
 -0.43831998E-03 -0.10686550E-02 -0.16611935E-02 -0.22133883E-02 -0.27231045E-02
 -0.31886148E-02 -0.36085915E-02 -0.39820966E-02 -0.43085697E-02 -0.45878139E-02
 -0.48199796E-02 -0.50055474E-02 -0.51453089E-02 -0.52403464E-02 -0.52920122E-02
 -0.53019062E-02 -0.52718531E-02 -0.52038797E-02 -0.51001913E-02 -0.49631477E-02
 -0.47952404E-02 -0.45990686E-02 -0.43773165E-02 -0.41327307E-02 -0.38680981E-02
 -0.35862248E-02 -0.32899157E-02 -0.29819549E-02 -0.26650872E-02 -0.23420008E-02
 -0.20153111E-02 -0.16875453E-02 -0.13611291E-02 -0.10383741E-02 -0.72146649E-03
 -0.41245716E-03 -0.11325355E-03  0.17438774E-03  0.44886666E-03  0.70874418E-03
  0.95274556E-03  0.11797622E-02  0.13888524E-02  0.15792410E-02  0.17503177E-02
  0.19016345E-02  0.20329020E-02  0.21439852E-02  0.22348975E-02  0.23057951E-02
  0.23569696E-02  0.23888409E-02  0.24019487E-02  0.23969441E-02  0.23745804E-02
  0.23357040E-02  0.22812445E-02  0.22122053E-02  0.21296532E-02  0.20347088E-02
  0.19285366E-02  0.18123350E-02  0.16873267E-02  0.15547491E-02  0.14158456E-02
  0.12718562E-02  0.11240092E-02  0.97351320E-03  0.82154931E-03  0.66926410E-03
  0.51776291E-03  0.36810374E-03  0.22129168E-03  0.78273946E-04 -0.60064517E-04
 -0.19290486E-03 -0.31949754E-03 -0.43916493E-03 -0.55130336E-03 -0.65538455E-03
 -0.75095651E-03 -0.83764385E-03 -0.91514760E-03 -0.98324445E-03 -0.10417855E-02
 -0.10906948E-02 -0.11299669E-02 -0.11596645E-02 -0.11799157E-02 -0.11909105E-02
 -0.11928974E-02 -0.11861795E-02 -0.11711106E-02 -0.11480909E-02 -0.11175623E-02
 -0.10800043E-02 -0.10359289E-02 -0.98587651E-03 -0.93041044E-03 -0.87011276E-03
 -0.80557940E-03 -0.73741555E-03 -0.66623114E-03 -0.59263646E-03 -0.51723787E-03
 -0.44063379E-03 -0.36341075E-03 -0.28613978E-03 -0.20937292E-03 -0.13364010E-03
 -0.59446134E-04  0.12731869E-04  0.82446930E-04  0.14928428E-03  0.21286314E-03
  0.27283829E-03  0.32890119E-03  0.38078101E-03  0.42824518E-03  0.47109979E-03
  0.50918964E-03  0.54239807E-03  0.57064650E-03  0.59389372E-03  0.61213500E-03
  0.62540090E-03  0.63375593E-03  0.63729704E-03  0.63615186E-03  0.63047685E-03
  0.62045530E-03  0.60629519E-03  0.58822698E-03  0.56650128E-03  0.54138650E-03
  0.51316639E-03  0.48213762E-03  0.44860732E-03  0.41289058E-03  0.37530809E-03
  0.33618367E-03  0.29584195E-03  0.25460613E-03  0.21279573E-03  0.17072451E-03
  0.12869850E-03  0.87014041E-04  0.45956112E-04  0.57966408E-05 -0.33206963E-04
 -0.70813154E-04 -0.10679745E-03 -0.14095347E-03 -0.17309383E-03 -0.20305084E-03
 -0.23067714E-03 -0.25584604E-03 -0.27845184E-03 -0.29840993E-03 -0.31565670E-03
 -0.33014945E-03 -0.34186599E-03 -0.35080423E-03 -0.35698159E-03 -0.36043433E-03
 -0.36121672E-03 -0.35940017E-03 -0.35507220E-03 -0.34833541E-03 -0.33930628E-03
 -0.32811403E-03 -0.31489929E-03 -0.29981284E-03 -0.28301428E-03 -0.26467062E-03
 -0.24495498E-03 -0.22404516E-03 -0.20212231E-03 -0.17936956E-03 -0.15597073E-03
 -0.13210896E-03 -0.10796554E-03 -0.83718690E-04 -0.59542358E-04 -0.35605193E-04
 -0.12069497E-04  0.10909722E-04  0.33185617E-04  0.54620300E-04  0.75085547E-04
  0.94463423E-04  0.11264681E-03  0.12953988E-03  0.14505840E-03  0.15913005E-03
  0.17169459E-03  0.18270392E-03  0.19212211E-03  0.19992534E-03  0.20610168E-03
  0.21065092E-03  0.21358422E-03  0.21492371E-03  0.21470210E-03  0.21296214E-03
  0.20975604E-03  0.20514488E-03  0.19919796E-03  0.19199208E-03  0.18361083E-03
  0.17414382E-03  0.16368589E-03  0.15233637E-03  0.14019820E-03  0.12737717E-03
  0.11398110E-03  0.10011906E-03  0.85900534E-04  0.71434705E-04  0.56829672E-04
  0.42191740E-04  0.27624730E-04  0.13229321E-04 -0.89756749E-06 -0.14663349E-04
 -0.27980303E-04 -0.40766060E-04 -0.52944036E-04 -0.64443815E-04 -0.75201485E-04
 -0.85159916E-04 -0.94268984E-04 -0.10248574E-03 -0.10977455E-03 -0.11610712E-03
 -0.12146253E-03 -0.12582723E-03 -0.12919488E-03 -0.13156627E-03 -0.13294913E-03
 -0.13335788E-03 -0.13281341E-03 -0.13134273E-03 -0.12897865E-03 -0.12575943E-03
 -0.12172837E-03 -0.11693336E-03 -0.11142649E-03 -0.10526354E-03 -0.98503535E-04
 -0.91208232E-04 -0.83441650E-04 -0.75269563E-04 -0.66758999E-04 -0.57977749E-04
 -0.48993878E-04 -0.39875249E-04 -0.30689056E-04 -0.21501372E-04 -0.12376724E-04
 -0.33776773E-05  0.54355502E-05  0.14005449E-04  0.22277554E-04  0.30200750E-04
  0.37727546E-04  0.44814323E-04  0.51421541E-04  0.57513922E-04  0.63060595E-04
  0.68035205E-04  0.72415995E-04  0.76185847E-04  0.79332296E-04  0.81847507E-04
  0.83728228E-04  0.84975701E-04  0.85595554E-04  0.85597664E-04  0.84995988E-04
  0.83808375E-04  0.82056355E-04  0.79764904E-04  0.76962197E-04  0.73679338E-04
  0.69950077E-04  0.65810521E-04  0.61298829E-04  0.56454900E-04  0.51320060E-04
  0.45936742E-04  0.40348172E-04  0.34598045E-04  0.28730216E-04  0.22788394E-04
  0.16815838E-04  0.10855073E-04  0.49476049E-05 -0.86633889E-06 -0.65480631E-05
 -0.12060638E-04 -0.17369118E-04 -0.22440737E-04 -0.27245094E-04 -0.31754305E-04
 -0.35943147E-04 -0.39789174E-04 -0.43272811E-04 -0.46377428E-04 -0.49089392E-04
 -0.51398100E-04 -0.53295981E-04 -0.54778489E-04 -0.55844068E-04 -0.56494100E-04
 -0.56732831E-04 -0.56567280E-04 -0.56007135E-04 -0.55064628E-04 -0.53754394E-04
 -0.52093322E-04 -0.50100388E-04 -0.47796483E-04 -0.45204225E-04 -0.42347766E-04
 -0.39252595E-04 -0.35945332E-04 -0.32453520E-04 -0.28805416E-04 -0.25029779E-04
 -0.21155660E-04 -0.17212197E-04 -0.13228411E-04 -0.92330039E-05 -0.52541706E-05
 -0.13194118E-05  0.25446417E-05  0.63123957E-05  0.99594489E-05  0.13462737E-04
  0.16800666E-04  0.19953232E-04  0.22902125E-04  0.25630825E-04  0.28124678E-04
  0.30370961E-04  0.32358929E-04  0.34079853E-04  0.35527036E-04  0.36695823E-04
  0.37583587E-04  0.38189712E-04  0.38515554E-04  0.38564392E-04  0.38341370E-04
  0.37853419E-04  0.37109180E-04  0.36118906E-04  0.34894359E-04  0.33448702E-04
  0.31796375E-04  0.29952977E-04  0.27935127E-04  0.25760335E-04  0.23446862E-04
  0.21013577E-04  0.18479815E-04  0.15865234E-04  0.13189675E-04  0.10473017E-04
  0.77350418E-05  0.49952967E-05  0.22729647E-05 -0.41326174E-06 -0.30453004E-05
 -0.56057934E-05 -0.80782128E-05 -0.10446960E-04 -0.12697455E-04 -0.14816220E-04
 -0.16790949E-04 -0.18610571E-04 -0.20265308E-04 -0.21746710E-04 -0.23047697E-04
 -0.24162574E-04 -0.25087052E-04 -0.25818244E-04 -0.26354664E-04 -0.26696209E-04
 -0.26844134E-04 -0.26801016E-04 -0.26570714E-04 -0.26158318E-04 -0.25570088E-04
 -0.24813393E-04 -0.23896637E-04 -0.22829180E-04 -0.21621259E-04 -0.20283899E-04
 -0.18828821E-04 -0.17268350E-04 -0.15615317E-04 -0.13882962E-04 -0.12084833E-04
 -0.10234689E-04 -0.83463980E-05 -0.64338414E-05 -0.45108160E-05 -0.25909406E-05
 -0.68756476E-06  0.11863189E-05  0.30181580E-05  0.47959196E-05  0.65081643E-05
  0.81441144E-05  0.96937167E-05  0.11147700E-04  0.12497622E-04  0.13735920E-04
  0.14855939E-04  0.15851966E-04  0.16719255E-04  0.17454036E-04  0.18053531E-04
  0.18515950E-04  0.18840489E-04  0.19027317E-04  0.19077559E-04  0.18993267E-04
  0.18777396E-04  0.18433761E-04  0.17967001E-04  0.17382528E-04  0.16686479E-04
  0.15885659E-04  0.14987483E-04  0.13999914E-04  0.12931397E-04  0.11790794E-04
  0.10587313E-04  0.93304423E-05  0.80298741E-05  0.66954386E-05  0.53370314E-05
  0.39645443E-05  0.25877965E-05  0.12164683E-05 -0.13996424E-06 -0.14722907E-05
 -0.27716260E-05 -0.40294666E-05 -0.52377422E-05 -0.63888651E-05 -0.74757739E-05
 -0.84919737E-05 -0.94315715E-05 -0.10289307E-04 -0.11060578E-04 -0.11741460E-04
 -0.12328726E-04 -0.12819852E-04 -0.13213026E-04 -0.13507147E-04 -0.13701820E-04
 -0.13797351E-04 -0.13794728E-04 -0.13695605E-04 -0.13502280E-04 -0.13217668E-04
 -0.12845269E-04 -0.12389137E-04 -0.11853838E-04 -0.11244415E-04 -0.10566343E-04
 -0.98254830E-05 -0.90280357E-05 -0.81804935E-05 -0.72895902E-05 -0.63622501E-05
 -0.54055376E-05 -0.44266053E-05 -0.34326433E-05 -0.24308286E-05 -0.14282758E-05
 -0.43198866E-06  0.55118665E-06  0.15146063E-05  0.24518717E-05  0.33568698E-05
  0.42238107E-05  0.50472626E-05  0.58221840E-05  0.65439517E-05  0.72083866E-05
  0.78117753E-05  0.83508884E-05  0.88229951E-05  0.92258740E-05  0.95578206E-05
  0.98176506E-05  0.10004700E-04  0.10118821E-04  0.10160376E-04  0.10130224E-04
  0.10029712E-04  0.98606515E-05  0.96253041E-05  0.93263553E-05  0.89668907E-05
  0.85503680E-05  0.80805869E-05  0.75616576E-05  0.69979677E-05  0.63941468E-05
  0.57550311E-05  0.50856267E-05  0.43910717E-05  0.36765994E-05  0.29474995E-05
  0.22090816E-05  0.14666374E-05  0.72540432E-06 -0.94694404E-08 -0.73295969E-06
 -0.14401990E-05 -0.21265079E-05 -0.27874246E-05 -0.34187324E-05 -0.40164853E-05
 -0.45770310E-05 -0.50970319E-05 -0.55734831E-05 -0.60037286E-05 -0.63854739E-05
 -0.67167966E-05 -0.69961543E-05 -0.72223888E-05 -0.73947290E-05 -0.75127901E-05
 -0.75765702E-05 -0.75864449E-05 -0.75431585E-05 -0.74478138E-05 -0.73018585E-05
 -0.71070706E-05 -0.68655405E-05 -0.65796521E-05 -0.62520617E-05 -0.58856759E-05
 -0.54836273E-05 -0.50492495E-05 -0.45860509E-05 -0.40976881E-05 -0.35879382E-05
 -0.30606705E-05 -0.25198187E-05 -0.19693526E-05 -0.14132500E-05 -0.85546900E-06
 -0.29992076E-06  0.24955668E-06  0.78922411E-06  0.13154655E-05  0.18248114E-05
  0.23139605E-05  0.27798007E-05  0.32194270E-05  0.36301594E-05  0.40095578E-05
  0.43554353E-05  0.46658702E-05  0.49392147E-05  0.51741029E-05  0.53694561E-05
  0.55244857E-05  0.56386949E-05  0.57118779E-05  0.57441168E-05  0.57357771E-05
  0.56875010E-05  0.56001989E-05  0.54750395E-05  0.53134376E-05  0.51170410E-05
  0.48877158E-05  0.46275299E-05  0.43387364E-05  0.40237548E-05  0.36851523E-05
  0.33256234E-05  0.29479697E-05  0.25550792E-05  0.21499045E-05  0.17354418E-05
  0.13147094E-05  0.89072649E-06  0.46649208E-06  0.44964738E-07 -0.37095756E-06
 -0.77845655E-06 -0.11748122E-05 -0.15574200E-05 -0.19238076E-05 -0.22716500E-05
 -0.25987836E-05 -0.29032189E-05 -0.31831520E-05 -0.34369743E-05 -0.36632812E-05
 -0.38608787E-05 -0.40287889E-05 -0.41662538E-05 -0.42727375E-05 -0.43479267E-05
 -0.43917301E-05 -0.44042754E-05 -0.43859060E-05 -0.43371753E-05 -0.42588401E-05
 -0.41518523E-05 -0.40173502E-05 -0.38566472E-05 -0.36712211E-05 -0.34627010E-05
 -0.32328545E-05 -0.29835730E-05 -0.27168571E-05 -0.24348015E-05 -0.21395788E-05
 -0.18334235E-05 -0.15186160E-05 -0.11974655E-05 -0.87229431E-06 -0.54542103E-06
 -0.21914485E-06  0.10427028E-06  0.42261081E-06  0.73372830E-06  0.10355534E-05
  0.13261091E-05  0.16035233E-05  0.18660404E-05  0.21120316E-05  0.23400049E-05
  0.25486133E-05  0.27366626E-05  0.29031172E-05  0.30471051E-05  0.31679225E-05
  0.32650357E-05  0.33380826E-05  0.33868734E-05  0.34113892E-05  0.34117801E-05
  0.33883619E-05  0.33416113E-05  0.32721614E-05  0.31807941E-05  0.30684336E-05
  0.29361378E-05  0.27850892E-05  0.26165850E-05  0.24320267E-05  0.22329092E-05
  0.20208087E-05  0.17973712E-05  0.15643000E-05  0.13233430E-05  0.10762804E-05
  0.82491146E-06  0.57104198E-06  0.31647180E-06  0.62982277E-07 -0.18767582E-06
 -0.43379402E-06 -0.67371748E-06 -0.90585573E-06 -0.11286929E-05 -0.13407973E-05
 -0.15408302E-05 -0.17275539E-05 -0.18998390E-05 -0.20566711E-05 -0.21971561E-05
 -0.23205247E-05 -0.24261365E-05 -0.25134828E-05 -0.25821880E-05 -0.26320110E-05
 -0.26628449E-05 -0.26747160E-05 -0.26677822E-05 -0.26423298E-05 -0.25987705E-05
 -0.25376361E-05 -0.24595743E-05 -0.23653418E-05 -0.22557984E-05 -0.21318992E-05
 -0.19946871E-05 -0.18452846E-05 -0.16848844E-05 -0.15147409E-05 -0.13361603E-05
 -0.11504914E-05 -0.95911490E-06 -0.76343422E-06 -0.56486505E-06 -0.36482552E-06
 -0.16472630E-06  0.34039093E-07  0.23010372E-06  0.42213639E-06  0.60885042E-06
  0.78901207E-06  0.96144834E-06  0.11250544E-05  0.12788006E-05  0.14217382E-05
  0.15530055E-05  0.16718324E-05  0.17775446E-05  0.18695674E-05  0.19474281E-05
  0.20107584E-05  0.20592952E-05  0.20928815E-05  0.21114661E-05  0.21151028E-05
  0.21039483E-05  0.20782604E-05  0.20383945E-05  0.19848004E-05  0.19180177E-05
  0.18386711E-05  0.17474650E-05  0.16451776E-05  0.15326548E-05  0.14108032E-05
  0.12805835E-05  0.11430028E-05  0.99910709E-06  0.84997385E-06  0.69670386E-06
  0.54041345E-06  0.38222652E-06  0.22326666E-06  0.64649386E-07 -0.92525538E-07
 atomic pseudo charge-density
  0.80000000E+01  0.79905007E+01  0.79620977E+01  0.79150740E+01  0.78498939E+01
  0.77671922E+01  0.76677602E+01  0.75525282E+01  0.74225457E+01  0.72789604E+01
  0.71229958E+01  0.69559287E+01  0.67790678E+01  0.65937329E+01  0.64012355E+01
  0.62028621E+01  0.59998592E+01  0.57934205E+01  0.55846769E+01  0.53746886E+01
  0.51644396E+01  0.49548337E+01  0.47466934E+01  0.45407588E+01  0.43376896E+01
  0.41380668E+01  0.39423960E+01  0.37511116E+01  0.35645804E+01  0.33831069E+01
  0.32069374E+01  0.30362656E+01  0.28712368E+01  0.27119526E+01  0.25584759E+01
  0.24108346E+01  0.22690257E+01  0.21330194E+01  0.20027620E+01  0.18781796E+01
  0.17591807E+01  0.16456589E+01  0.15374954E+01  0.14345612E+01  0.13367185E+01
  0.12438231E+01  0.11557259E+01  0.10722734E+01  0.99331022E+00  0.91867893E+00
  0.84822175E+00  0.78178104E+00  0.71920005E+00  0.66032352E+00  0.60499822E+00
  0.55307331E+00  0.50440078E+00  0.45883570E+00  0.41623650E+00  0.37646514E+00
  0.33938729E+00  0.30487243E+00  0.27279395E+00  0.24302918E+00  0.21545945E+00
  0.18997009E+00  0.16645041E+00  0.14479368E+00  0.12489709E+00  0.10666173E+00
  0.89992477E-01  0.74797962E-01  0.60990494E-01  0.48485976E-01  0.37203825E-01
  0.27066887E-01  0.18001350E-01  0.99366531E-02  0.28054022E-02 -0.34567239E-02
 -0.89110616E-02 -0.13616052E-01 -0.17627327E-01 -0.20997802E-01 -0.23777756E-01
 -0.26014921E-01 -0.27754566E-01 -0.29039575E-01 -0.29910535E-01 -0.30405808E-01
 -0.30561614E-01 -0.30412106E-01 -0.29989446E-01 -0.29323876E-01 -0.28443790E-01
 -0.27375808E-01 -0.26144841E-01 -0.24774161E-01 -0.23285464E-01 -0.21698937E-01
 -0.20033322E-01 -0.18305974E-01 -0.16532924E-01 -0.14728936E-01 -0.12907567E-01
 -0.11081222E-01 -0.92612050E-02 -0.74577792E-02 -0.56802135E-02 -0.39368350E-02
 -0.22350784E-02 -0.58153336E-03  0.10180087E-02  0.25585093E-02  0.40356395E-02
  0.54457366E-02  0.67857639E-02  0.80532698E-02  0.92463500E-02  0.10363610E-01
  0.11404129E-01  0.12367424E-01  0.13253421E-01  0.14062416E-01  0.14795048E-01
  0.15452272E-01  0.16035324E-01  0.16545698E-01  0.16985121E-01  0.17355524E-01
  0.17659023E-01  0.17897891E-01  0.18074543E-01  0.18191511E-01  0.18251425E-01
  0.18256998E-01  0.18211005E-01  0.18116270E-01  0.17975649E-01  0.17792015E-01
  0.17568250E-01  0.17307224E-01  0.17011792E-01  0.16684778E-01  0.16328969E-01
  0.15947103E-01  0.15541863E-01  0.15115867E-01  0.14671667E-01  0.14211735E-01
  0.13738466E-01  0.13254167E-01  0.12761058E-01  0.12261264E-01  0.11756817E-01
  0.11249649E-01  0.10741594E-01  0.10234385E-01  0.97296534E-02  0.92289296E-02
  0.87336417E-02  0.82451166E-02  0.77645810E-02  0.72931622E-02  0.68318898E-02
  0.63816970E-02  0.59434232E-02  0.55178157E-02  0.51055327E-02  0.47071451E-02
  0.43231403E-02  0.39539244E-02  0.35998258E-02  0.32610979E-02  0.29379231E-02
  0.26304156E-02  0.23386252E-02  0.20625404E-02  0.18020926E-02  0.15571590E-02
  0.13275666E-02  0.11130953E-02  0.91348211E-03  0.72842383E-03  0.55758109E-03
  0.40058147E-03  0.25702292E-03  0.12647697E-03  0.84919374E-05 -0.97404014E-04
 -0.19169987E-03 -0.27489887E-03 -0.34751573E-03 -0.41007397E-03 -0.46310333E-03
 -0.50713735E-03 -0.54271101E-03 -0.57035857E-03 -0.59061146E-03 -0.60399634E-03
 -0.61103326E-03 -0.61223394E-03 -0.60810026E-03 -0.59912273E-03 -0.58577919E-03
 -0.56853362E-03 -0.54783504E-03 -0.52411654E-03 -0.49779442E-03 -0.46926748E-03
 -0.43891637E-03 -0.40710308E-03 -0.37417050E-03 -0.34044213E-03 -0.30622185E-03
 -0.27179378E-03 -0.23742224E-03 -0.20335178E-03 -0.16980735E-03 -0.13699442E-03
 -0.10509931E-03 -0.74289457E-04 -0.44713876E-04 -0.16503555E-04  0.10228028E-04
  0.35384356E-04  0.58885288E-04  0.80666428E-04  0.10067846E-03  0.11888648E-03
  0.13526922E-03  0.14981838E-03  0.16253783E-03  0.17344285E-03  0.18255934E-03
  0.18992307E-03  0.19557883E-03  0.19957972E-03  0.20198629E-03  0.20286583E-03
  0.20229154E-03  0.20034184E-03  0.19709958E-03  0.19265137E-03  0.18708681E-03
  0.18049788E-03  0.17297825E-03  0.16462265E-03  0.15552627E-03  0.14578422E-03
  0.13549092E-03  0.12473965E-03  0.11362201E-03  0.10222754E-03  0.90643244E-04
  0.78953223E-04  0.67238342E-04  0.55575898E-04  0.44039341E-04  0.32698028E-04
  0.21617005E-04  0.10856823E-04  0.47338981E-06 -0.94821492E-05 -0.18963501E-04
 -0.27929284E-04 -0.36343054E-04 -0.44173309E-04 -0.51393462E-04 -0.57981793E-04
 -0.63921371E-04 -0.69199954E-04 -0.73809877E-04 -0.77747905E-04 -0.81015075E-04
 -0.83616526E-04 -0.85561301E-04 -0.86862145E-04 -0.87535288E-04 -0.87600215E-04
 -0.87079424E-04 -0.85998189E-04 -0.84384298E-04 -0.82267801E-04 -0.79680750E-04
 -0.76656933E-04 -0.73231618E-04 -0.69441282E-04 -0.65323362E-04 -0.60915991E-04
 -0.56257753E-04 -0.51387434E-04 -0.46343788E-04 -0.41165304E-04 -0.35889990E-04
 -0.30555158E-04 -0.25197227E-04 -0.19851535E-04 -0.14552162E-04 -0.93317689E-05
 -0.42214456E-05  0.74942309E-06  0.55532805E-05  0.10164505E-04  0.14559505E-04
  0.18716793E-04  0.22617057E-04  0.26243202E-04  0.29580390E-04  0.32616062E-04
  0.35339939E-04  0.37744024E-04  0.39822575E-04  0.41572075E-04  0.42991192E-04
  0.44080714E-04  0.44843492E-04  0.45284355E-04  0.45410029E-04  0.45229036E-04
  0.44751595E-04  0.43989509E-04  0.42956047E-04  0.41665823E-04  0.40134668E-04
  0.38379495E-04  0.36418171E-04  0.34269375E-04  0.31952462E-04  0.29487323E-04
  0.26894250E-04  0.24193796E-04  0.21406641E-04  0.18553459E-04  0.15654790E-04
  0.12730914E-04  0.98017330E-05  0.68866512E-05  0.40044707E-05  0.11732869E-05
 -0.15896078E-05 -0.42678118E-05 -0.68458957E-05 -0.93094751E-05 -0.11645276E-04
 -0.13841190E-04 -0.15886323E-04 -0.17771036E-04 -0.19486972E-04 -0.21027081E-04
 -0.22385630E-04 -0.23558213E-04 -0.24541741E-04 -0.25334434E-04 -0.25935801E-04
 -0.26346610E-04 -0.26568856E-04 -0.26605719E-04 -0.26461514E-04 -0.26141640E-04
 -0.25652515E-04 -0.25001517E-04 -0.24196910E-04 -0.23247772E-04 -0.22163919E-04
 -0.20955822E-04 -0.19634525E-04 -0.18211562E-04 -0.16698871E-04 -0.15108707E-04
 -0.13453552E-04 -0.11746037E-04 -0.99988457E-05 -0.82246405E-05 -0.64359740E-05
 -0.46452122E-05 -0.28644569E-05 -0.11054725E-05  0.62038365E-06  0.23022271E-05
  0.39297075E-05  0.54930647E-05  0.69831811E-05  0.83916269E-05  0.97107019E-05
  0.10933470E-04  0.12053790E-04  0.13066338E-04  0.13966626E-04  0.14751014E-04
  0.15416718E-04  0.15961808E-04  0.16385204E-04  0.16686668E-04  0.16866783E-04
  0.16926940E-04  0.16869303E-04  0.16696787E-04  0.16413018E-04  0.16022299E-04
  0.15529561E-04  0.14940324E-04  0.14260645E-04  0.13497068E-04  0.12656570E-04
  0.11746503E-04  0.10774543E-04  0.97486272E-05  0.86768981E-05  0.75676434E-05
  0.64292383E-05  0.52700871E-05  0.40985664E-05  0.29229688E-05  0.17514490E-05
  0.59197140E-06 -0.54773993E-06 -0.16602488E-05 -0.27384517E-05 -0.37756189E-05
 -0.47654336E-05 -0.57020261E-05 -0.65800053E-05 -0.73944860E-05 -0.81411128E-05
 -0.88160790E-05 -0.94161423E-05 -0.99386364E-05 -0.10381478E-04 -0.10743170E-04
 -0.11022801E-04 -0.11220040E-04 -0.11335128E-04 -0.11368867E-04 -0.11322601E-04
 -0.11198201E-04 -0.10998036E-04 -0.10724957E-04 -0.10382260E-04 -0.99736590E-05
 -0.95032527E-05 -0.89754892E-05 -0.83951292E-05 -0.77672070E-05 -0.70969919E-05
 -0.63899471E-05 -0.56516889E-05 -0.48879453E-05 -0.41045146E-05 -0.33072244E-05
 -0.25018906E-05 -0.16942780E-05 -0.89006122E-06 -0.94787406E-07  0.68615989E-06
  0.14475948E-05  0.21845615E-05  0.28923641E-05  0.35665948E-05  0.42031589E-05
  0.47982979E-05  0.53486090E-05  0.58510631E-05  0.63030183E-05  0.67022322E-05
  0.70468699E-05  0.73355098E-05  0.75671458E-05  0.77411876E-05  0.78574571E-05
  0.79161826E-05  0.79179901E-05  0.78638918E-05  0.77552729E-05  0.75938747E-05
  0.73817772E-05  0.71213779E-05  0.68153702E-05  0.64667194E-05  0.60786371E-05
  0.56545549E-05  0.51980966E-05  0.47130492E-05  0.42033344E-05  0.36729785E-05
  0.31260822E-05  0.25667915E-05  0.19992669E-05  0.14276552E-05  0.85605968E-06
  0.28851285E-06 -0.27105087E-06 -0.81882099E-06 -0.13511355E-05 -0.18645041E-05
 -0.23556295E-05 -0.28214278E-05 -0.32590459E-05 -0.36658779E-05 -0.40395796E-05
 -0.43780797E-05 -0.46795906E-05 -0.49426158E-05 -0.51659554E-05 -0.53487101E-05
 -0.54902819E-05 -0.55903736E-05 -0.56489858E-05 -0.56664120E-05 -0.56432316E-05
 -0.55803009E-05 -0.54787431E-05 -0.53399349E-05 -0.51654936E-05 -0.49572612E-05
 -0.47172879E-05 -0.44478140E-05 -0.41512512E-05 -0.38301624E-05 -0.34872418E-05
 -0.31252927E-05 -0.27472070E-05 -0.23559424E-05 -0.19545013E-05 -0.15459079E-05
 -0.11331871E-05 -0.71934325E-06 -0.30733851E-06  0.99926739E-07  0.49963370E-06
  0.88906374E-06  0.12656160E-05  0.16268238E-05  0.19703701E-05  0.22941013E-05
  0.25960400E-05  0.28743961E-05  0.31275762E-05  0.33541923E-05  0.35530677E-05
  0.37232422E-05  0.38639755E-05  0.39747488E-05  0.40552646E-05  0.41054460E-05
  0.41254329E-05  0.41155779E-05  0.40764405E-05  0.40087794E-05  0.39135442E-05
  0.37918656E-05  0.36450441E-05  0.34745385E-05  0.32819529E-05  0.30690225E-05
  0.28375997E-05  0.25896389E-05  0.23271808E-05  0.20523365E-05  0.17672718E-05
  0.14741901E-05  0.11753169E-05  0.87288313E-06  0.56910931E-06  0.26618988E-06
 -0.33722026E-07 -0.32852924E-06 -0.61620467E-06 -0.89480459E-06 -0.11624812E-05
 -0.14174943E-05 -0.16582220E-05 -0.18831704E-05 -0.20909821E-05 -0.22804439E-05
 -0.24504931E-05 -0.26002229E-05 -0.27288861E-05 -0.28358978E-05 -0.29208377E-05
 -0.29834497E-05 -0.30236417E-05 -0.30414834E-05 -0.30372032E-05 -0.30111845E-05
 -0.29639599E-05 -0.28962055E-05 -0.28087335E-05 -0.27024845E-05 -0.25785188E-05
 -0.24380067E-05 -0.22822183E-05 -0.21125133E-05 -0.19303296E-05 -0.17371716E-05
 -0.15345989E-05 -0.13242137E-05 -0.11076490E-05 -0.88655648E-06 -0.66259416E-06
 -0.43741460E-06 -0.21265306E-06  0.10083888E-07  0.22922941E-06  0.44326705E-06
  0.65074075E-06  0.85026438E-06  0.10405306E-05  0.12203188E-05  0.13885028E-05
  0.15440573E-05  0.16860635E-05  0.18137142E-05  0.19263180E-05  0.20233020E-05
  0.21042144E-05  0.21687258E-05  0.22166297E-05  0.22478419E-05  0.22623992E-05
  0.22604575E-05  0.22422887E-05  0.22082768E-05  0.21589136E-05  0.20947934E-05
  0.20166071E-05  0.19251360E-05  0.18212444E-05  0.17058725E-05  0.15800281E-05
  0.14447787E-05  0.13012425E-05  0.11505801E-05  0.99398503E-06  0.83267495E-06
  0.66788246E-06  0.50084601E-06  0.33280096E-06  0.16497075E-06 -0.14417317E-08
 -0.16526242E-06 -0.32535407E-06 -0.48062386E-06 -0.63003052E-06 -0.77259106E-06
 -0.90738687E-06 -0.10335693E-05 -0.11503649E-05 -0.12570793E-05 -0.13531016E-05
 -0.14379069E-05 -0.15110593E-05 -0.15722131E-05 -0.16211143E-05 -0.16576006E-05
 -0.16816017E-05 -0.16931379E-05 -0.16923188E-05 -0.16793409E-05 -0.16544853E-05
 -0.16181139E-05 -0.15706658E-05 -0.15126527E-05 -0.14446545E-05 -0.13673139E-05
 -0.12813306E-05 -0.11874558E-05 -0.10864856E-05 -0.97925494E-06 -0.86663069E-06
 -0.74950522E-06 -0.62878939E-06 -0.50540584E-06 -0.38028213E-06 -0.25434399E-06
 -0.12850875E-06 -0.36788553E-08  0.11926439E-06  0.23946683E-06  0.35610712E-06
  0.46840220E-06  0.57561225E-06  0.67704537E-06  0.77206182E-06  0.86007776E-06
  0.94056863E-06  0.10130720E-05  0.10771898E-05  0.11325904E-05  0.11790099E-05
  0.12162527E-05  0.12441924E-05  0.12627710E-05  0.12719988E-05  0.12719529E-05
  0.12627759E-05  0.12446737E-05  0.12179129E-05  0.11828183E-05  0.11397695E-05
  0.10891971E-05  0.10315793E-05  0.96743727E-06  0.89733113E-06  0.82185502E-06
  0.74163248E-06  0.65731149E-06  0.56955945E-06  0.47905807E-06  0.38649829E-06
  0.29257516E-06  0.19798282E-06  0.10340951E-06  0.95327354E-08 -0.82985396E-07
 -0.17350272E-06 -0.26140128E-06 -0.34609139E-06 -0.42701544E-06 -0.50365136E-06
 -0.57551583E-06 -0.64216713E-06 -0.70320770E-06 -0.75828622E-06 -0.80709951E-06
 -0.84939388E-06 -0.88496620E-06 -0.91366461E-06 -0.93538873E-06 -0.95008968E-06
 -0.95776954E-06 -0.95848062E-06 -0.95232426E-06 -0.93944935E-06 -0.92005056E-06
 -0.89436620E-06 -0.86267587E-06 -0.82529777E-06 -0.78258590E-06 -0.73492692E-06
 -0.68273690E-06 -0.62645786E-06 -0.56655426E-06 -0.50350930E-06 -0.43782117E-06
 -0.36999927E-06 -0.30056042E-06 -0.23002501E-06 -0.15891324E-06 -0.87741443E-07
 -0.17018409E-07  0.52758095E-07  0.12110472E-06  0.18755576E-06  0.25166620E-06
  0.31301457E-06  0.37120557E-06  0.42587254E-06  0.47667953E-06  0.52332332E-06
  0.56553500E-06  0.60308140E-06  0.63576617E-06  0.66343060E-06  0.68595421E-06
  0.70325494E-06  0.71528920E-06  0.72205157E-06  0.72357420E-06  0.71992606E-06
  0.71121183E-06  0.69757060E-06  0.67917437E-06  0.65622631E-06  0.62895881E-06
  0.59763136E-06  0.56252833E-06  0.52395654E-06  0.48224269E-06  0.43773078E-06
  0.39077938E-06  0.34175886E-06  0.29104856E-06  0.23903395E-06  0.18610384E-06
  0.13264754E-06  0.79052078E-07  0.25699521E-07 -0.27035679E-07 -0.78789215E-07
 -0.12920935E-06 -0.17795920E-06 -0.22471891E-06 -0.26918764E-06 -0.31108541E-06
 -0.35015474E-06 -0.38616212E-06 -0.41889932E-06 -0.44818441E-06 -0.47386270E-06
 -0.49580736E-06 -0.51391992E-06 -0.52813046E-06 -0.53839774E-06 -0.54470897E-06
 -0.54707951E-06 -0.54555228E-06 -0.54019706E-06 -0.53110953E-06 -0.51841026E-06
 -0.50224340E-06 -0.48277535E-06 -0.46019320E-06 -0.43470310E-06 -0.40652853E-06
 -0.37590844E-06 -0.34309529E-06 -0.30835314E-06 -0.27195554E-06 -0.23418351E-06
 -0.19532338E-06 -0.15566479E-06 -0.11549850E-06 -0.75114410E-07 -0.34799495E-07
  0.51641510E-08  0.44501222E-07  0.82945024E-07  0.12023921E-06  0.15613943E-06
  0.19041482E-06  0.22284947E-06  0.25324363E-06  0.28141493E-06  0.30719932E-06
  0.33045200E-06  0.35104806E-06  0.36888310E-06  0.38387363E-06  0.39595731E-06
  0.40509306E-06  0.41126102E-06  0.41446240E-06  0.41471905E-06  0.41207308E-06
  0.40658621E-06  0.39833902E-06  0.38743012E-06  0.37397520E-06  0.35810591E-06
  0.33996873E-06  0.31972372E-06  0.29754317E-06  0.27361025E-06  0.24811753E-06
  0.22126554E-06  0.19326120E-06  0.16431633E-06  0.13464606E-06  0.10446735E-06
  0.73997374E-07  0.43452089E-07  0.13044703E-07 -0.17015738E-07 -0.46525739E-07
 -0.75288676E-07 -0.10311606E-06 -0.12982869E-06 -0.15525780E-06 -0.17924601E-06
 -0.20164827E-06 -0.22233266E-06 -0.24118113E-06 -0.25809004E-06 -0.27297073E-06
 -0.28574982E-06 -0.29636957E-06 -0.30478796E-06 -0.31097880E-06 -0.31493162E-06
 -0.31665154E-06 -0.31615897E-06 -0.31348926E-06 -0.30869221E-06 -0.30183153E-06
 -0.29298415E-06 -0.28223956E-06 -0.26969893E-06 -0.25547430E-06 -0.23968760E-06
 -0.22246970E-06 -0.20395939E-06 -0.18430224E-06 -0.16364959E-06 -0.14215738E-06
 -0.11998502E-06 -0.97294250E-07 -0.74248009E-07 -0.51009303E-07 -0.27740088E-07
 -0.46001832E-08  0.18253786E-07  0.40669408E-07  0.62499457E-07  0.83602821E-07
  0.10384537E-06  0.12310076E-06  0.14125120E-06  0.15818807E-06  0.17381260E-06
  0.18803633E-06  0.20078160E-06  0.21198189E-06  0.22158213E-06  0.22953888E-06
  0.23582051E-06  0.24040716E-06  0.24329078E-06  0.24447497E-06  0.24397479E-06
  0.24181653E-06  0.23803732E-06  0.23268475E-06  0.22581642E-06  0.21749936E-06
  0.20780949E-06  0.19683096E-06  0.18465546E-06  0.17138154E-06  0.15711377E-06
  0.14196204E-06  0.12604069E-06  0.10946772E-06  0.92363891E-07  0.74851941E-07
  0.57055689E-07  0.39099210E-07  0.21105994E-07  0.31981282E-08 -0.14504500E-07
 -0.31884977E-07 -0.48830102E-07 -0.65231098E-07 -0.80984273E-07 -0.95991647E-07
 -0.11016153E-06 -0.12340905E-06 -0.13565663E-06 -0.14683439E-06 -0.15688054E-06
 -0.16574167E-06 -0.17337298E-06 -0.17973850E-06 -0.18481117E-06 -0.18857294E-06
 -0.19101477E-06 -0.19213654E-06 -0.19194696E-06 -0.19046340E-06 -0.18771167E-06
 -0.18372571E-06 -0.17854729E-06 -0.17222560E-06 -0.16481689E-06 -0.15638394E-06
 -0.14699561E-06 -0.13672626E-06 -0.12565525E-06 -0.11386631E-06 -0.10144692E-06
 -0.88487727E-07 -0.75081886E-07 -0.61324402E-07 -0.47311493E-07 -0.33139936E-07
 -0.18906420E-07 -0.47069069E-08  0.93639887E-08  0.23213613E-07  0.36751860E-07
  0.49891734E-07  0.62549888E-07  0.74647134E-07  0.86108909E-07  0.96865720E-07
  0.10685354E-06  0.11601417E-06  0.12429554E-06  0.13165202E-06  0.13804461E-06
  0.14344111E-06  0.14781633E-06  0.15115209E-06  0.15343730E-06  0.15466798E-06
  0.15484716E-06  0.15398482E-06  0.15209771E-06  0.14920922E-06  0.14534911E-06
   13.9839723154840      T
 Non local Part
           2           2   1.46348098333823     
   4.69848917872841        4.28344552282300        4.28344552282300     
   3.88452354360113     
 Reciprocal Space Part
  0.00000000E+00 -0.30945275E+00 -0.12258692E+01 -0.27137985E+01 -0.47153947E+01
 -0.71522357E+01 -0.99277984E+01 -0.12930514E+02 -0.16037318E+02 -0.19117595E+02
 -0.22037392E+02 -0.24663794E+02 -0.26869318E+02 -0.28536216E+02 -0.29560529E+02
 -0.29855811E+02 -0.29356377E+02 -0.28019996E+02 -0.25829935E+02 -0.22796297E+02
 -0.18956597E+02 -0.14375557E+02 -0.91441115E+01 -0.33776467E+01  0.27864900E+01
  0.91921519E+01  0.15668144E+02  0.22032466E+02  0.28096946E+02  0.33672129E+02
  0.38572307E+02  0.42620541E+02  0.45653552E+02  0.47526345E+02  0.48116437E+02
  0.47327578E+02  0.45092858E+02  0.41377111E+02  0.36178560E+02  0.29529626E+02
  0.21496906E+02  0.12180291E+02  0.17112402E+01 -0.97497305E+01 -0.22016312E+02
 -0.34880320E+02 -0.48116189E+02 -0.61485908E+02 -0.74744308E+02 -0.87644543E+02
 -0.99943640E+02 -0.11140798E+03 -0.12181860E+03 -0.13097608E+03 -0.13870510E+03
 -0.14485831E+03 -0.14931963E+03 -0.15200675E+03 -0.15287288E+03 -0.15190763E+03
 -0.14913705E+03 -0.14462287E+03 -0.13846084E+03 -0.13077831E+03 -0.12173120E+03
 -0.11150019E+03 -0.10028650E+03 -0.88307185E+02 -0.75790140E+02 -0.62968950E+02
 -0.50077666E+02 -0.37345662E+02 -0.24992699E+02 -0.13224302E+02 -0.22275650E+01
  0.78325328E+01  0.16816203E+02  0.24611266E+02  0.31134863E+02  0.36334426E+02
  0.40187915E+02  0.42703308E+02  0.43917406E+02  0.43893967E+02  0.42721253E+02
  0.40509055E+02  0.37385293E+02  0.33492275E+02  0.28982731E+02  0.24015715E+02
  0.18752496E+02  0.13352529E+02  0.79696202E+01  0.27483628E+01 -0.21790609E+01
 -0.66956456E+01 -0.10701839E+02 -0.14117287E+02 -0.16882008E+02 -0.18957008E+02
 Real Space Part
  0.00000000E+00 -0.83256243E+00 -0.33223824E+01 -0.74459122E+01 -0.13164085E+02
 -0.20422585E+02 -0.29152222E+02 -0.39269419E+02 -0.50676797E+02 -0.63263869E+02
 -0.76907843E+02 -0.91474513E+02 -0.10681926E+03 -0.12278815E+03 -0.13921912E+03
 -0.15594324E+03 -0.17278608E+03 -0.18956917E+03 -0.20611146E+03 -0.22223091E+03
 -0.23774612E+03 -0.25247800E+03 -0.26625142E+03 -0.27889698E+03 -0.29025273E+03
 -0.30016582E+03 -0.30849429E+03 -0.31510865E+03 -0.31989349E+03 -0.32274903E+03
 -0.32359253E+03 -0.32235960E+03 -0.31900542E+03 -0.31350576E+03 -0.30585787E+03
 -0.29608116E+03 -0.28421771E+03 -0.27033254E+03 -0.25451363E+03 -0.23687177E+03
 -0.21754007E+03 -0.19667323E+03 -0.17444656E+03 -0.15105470E+03 -0.12671008E+03
 -0.10164104E+03 -0.76089787E+02 -0.50309948E+02 -0.24563975E+02  0.87975203E+00
  0.25750050E+02  0.49776234E+02  0.72691644E+02  0.94237297E+02  0.11416569E+03
  0.13224468E+03  0.14826144E+03  0.16202645E+03  0.17337740E+03  0.18218315E+03
  0.18834746E+03  0.19181268E+03  0.19256318E+03  0.19062854E+03  0.18608652E+03
  0.17906561E+03  0.16974728E+03  0.15836780E+03  0.14521957E+03  0.13065198E+03
  0.11507195E+03  0.98945154E+02  0.82799470E+02  0.66530418E+02  0.47477852E+02
  0.25812747E+02  0.22654548E+01 -0.22381612E+02 -0.47302782E+02 -0.71633796E+02
 -0.94477649E+02 -0.11491194E+03 -0.13199506E+03 -0.14477416E+03 -0.15229267E+03
 -0.15359729E+03 -0.14774639E+03 -0.13382481E+03 -0.11096438E+03 -0.77951618E+02
 -0.34283677E+02  0.32151566E+01 -0.28613333E+00 -0.49790083E-01  0.15867963E-01
 -0.13884621E-02 -0.23078981E-03  0.89498491E-04 -0.13268412E-04  0.21306577E-18
 Reciprocal Space Part
  0.00000000E+00  0.31773102E+00  0.12589521E+01  0.27881200E+01  0.48472292E+01
  0.73576230E+01  0.10222457E+02  0.13329744E+02  0.16555886E+02  0.19769604E+02
  0.22836140E+02  0.25621614E+02  0.27997409E+02  0.29844456E+02  0.31057291E+02
  0.31547771E+02  0.31248322E+02  0.30114643E+02  0.28127762E+02  0.25295389E+02
  0.21652519E+02  0.17261257E+02  0.12209856E+02  0.66109982E+01  0.59934562E+00
 -0.56715731E+01 -0.12033065E+02 -0.18305468E+02 -0.24302732E+02 -0.29837262E+02
 -0.34724897E+02 -0.38789897E+02 -0.41869794E+02 -0.43819984E+02 -0.44517934E+02
 -0.43866884E+02 -0.41798952E+02 -0.38277536E+02 -0.33298970E+02 -0.26893362E+02
 -0.19124592E+02 -0.10089472E+02  0.83925706E-01  0.11238735E+02  0.23192493E+02
  0.35740995E+02  0.48662715E+02  0.61723674E+02  0.74682653E+02  0.87296603E+02
  0.99326124E+02  0.11054089E+03  0.12072485E+03  0.12968116E+03  0.13723658E+03
  0.14324536E+03  0.14759254E+03  0.15019640E+03  0.15101017E+03  0.15002302E+03
  0.14726003E+03  0.14278145E+03  0.13668114E+03  0.12908417E+03  0.12014380E+03
  0.11003779E+03  0.98964198E+02  0.87136766E+02  0.74780001E+02  0.62124073E+02
  0.49399673E+02  0.36832934E+02  0.24640557E+02  0.13025245E+02  0.21715578E+01
 -0.77577299E+01 -0.16624669E+02 -0.24318531E+02 -0.30757502E+02 -0.35889650E+02
 -0.39693159E+02 -0.42175841E+02 -0.43373954E+02 -0.43350369E+02 -0.42192149E+02
 -0.40007622E+02 -0.36923023E+02 -0.33078804E+02 -0.28625717E+02 -0.23720776E+02
 -0.18523193E+02 -0.13190407E+02 -0.78742904E+01 -0.27176302E+01  0.21490287E+01
  0.66101190E+01  0.10567301E+02  0.13941183E+02  0.16672494E+02  0.18722681E+02
 Real Space Part
  0.00000000E+00  0.82636109E+00  0.32976570E+01  0.73905789E+01  0.13066456E+02
  0.20271523E+02  0.28937291E+02  0.38981024E+02  0.50306323E+02  0.62803811E+02
  0.76351922E+02  0.90817785E+02  0.10605822E+03  0.12192080E+03  0.13824504E+03
  0.15486367E+03  0.17160394E+03  0.18828907E+03  0.20473972E+03  0.22077557E+03
  0.23621689E+03  0.25088619E+03  0.26460991E+03  0.27722015E+03  0.28855628E+03
  0.29846675E+03  0.30681069E+03  0.31345957E+03  0.31829877E+03  0.32122912E+03
  0.32216827E+03  0.32105204E+03  0.31783557E+03  0.31249436E+03  0.30502518E+03
  0.29544670E+03  0.28380001E+03  0.27014890E+03  0.25457991E+03  0.23720211E+03
  0.21814669E+03  0.19756622E+03  0.17563367E+03  0.15254117E+03  0.12849846E+03
  0.10373108E+03  0.78478317E+02  0.52990793E+02  0.27527909E+02  0.23549846E+01
 -0.22259837E+02 -0.46048850E+02 -0.68748269E+02 -0.90101844E+02 -0.10986462E+03
 -0.12780676E+03 -0.14371750E+03 -0.15740903E+03 -0.16872041E+03 -0.17752147E+03
 -0.18371650E+03 -0.18724791E+03 -0.18809958E+03 -0.18630012E+03 -0.18192567E+03
 -0.17510257E+03 -0.16600949E+03 -0.15487927E+03 -0.14200024E+03 -0.12771708E+03
 -0.11243137E+03 -0.96602740E+02 -0.80752390E+02 -0.64776863E+02 -0.46047832E+02
 -0.24733549E+02 -0.15549868E+01  0.22715320E+02  0.47261963E+02  0.71231280E+02
  0.93737131E+02  0.11386816E+03  0.13069390E+03  0.14327269E+03  0.15065906E+03
  0.15191069E+03  0.14609669E+03  0.13231222E+03  0.10969881E+03  0.77056619E+02
  0.33888094E+02 -0.31780152E+01  0.28282798E+00  0.49214919E-01 -0.15684660E-01
  0.13724229E-02  0.22812378E-03 -0.88464624E-04  0.13115138E-04 -0.20705639E-18
 Non local Part
           0           2   1.46348098333823     
   4.36783168503812        7.19199701641565        7.19199701641565     
   11.8906810365862     
 Reciprocal Space Part
  0.14053078E+02  0.13697026E+02  0.12634957E+02  0.10885028E+02  0.84771186E+01
  0.54522822E+01  0.18619795E+01 -0.22328737E+01 -0.67630320E+01 -0.11652194E+02
 -0.16818402E+02 -0.22175532E+02 -0.27634852E+02 -0.33106619E+02 -0.38501670E+02
 -0.43732992E+02 -0.48717235E+02 -0.53376128E+02 -0.57637792E+02 -0.61437911E+02
 -0.64720742E+02 -0.67439952E+02 -0.69559262E+02 -0.71052892E+02 -0.71905804E+02
 -0.72113736E+02 -0.71683035E+02 -0.70630292E+02 -0.68981797E+02 -0.66772824E+02
 -0.64046759E+02 -0.60854108E+02 -0.57251385E+02 -0.53299930E+02 -0.49064659E+02
 -0.44612790E+02 -0.40012563E+02 -0.35331979E+02 -0.30637591E+02 -0.25993362E+02
 -0.21459606E+02 -0.17092050E+02 -0.12941012E+02 -0.90507167E+01 -0.54587602E+01
 -0.21957232E+01  0.71506058E+00  0.32575826E+01  0.54230894E+01  0.72098714E+01
  0.86229194E+01  0.96734636E+01  0.10378408E+02  0.10759676E+02  0.10843490E+02
  0.10659596E+02  0.10240457E+02  0.96204326E+01  0.88349660E+01  0.79197901E+01
  0.69101749E+01  0.58402266E+01  0.47422543E+01  0.36462127E+01  0.25792305E+01
  0.15652308E+01  0.62464545E+00 -0.22577237E+00 -0.97304155E+00 -0.16079533E+01
 -0.21249844E+01 -0.25221308E+01 -0.28006694E+01 -0.29648579E+01 -0.30215848E+01
 -0.29799790E+01 -0.28509929E+01 -0.26469697E+01 -0.23812063E+01 -0.20675243E+01
 -0.17198581E+01 -0.13518695E+01 -0.97659817E+00 -0.60615322E+00 -0.25145188E+00
  0.77990648E-01  0.37421842E+00  0.63093795E+00  0.84356834E+00  0.10092402E+01
  0.11267466E+01  0.11964513E+01  0.12201579E+01  0.12009478E+01  0.11429925E+01
  0.10513472E+01  0.93173282E+00  0.79031378E+00  0.63347746E+00  0.46762212E+00
 Real Space Part
 -0.11991494E+03 -0.11987999E+03 -0.11977505E+03 -0.11959978E+03 -0.11935364E+03
 -0.11903591E+03 -0.11864564E+03 -0.11818171E+03 -0.11764282E+03 -0.11702755E+03
 -0.11633430E+03 -0.11556138E+03 -0.11470701E+03 -0.11376934E+03 -0.11274648E+03
 -0.11163652E+03 -0.11043757E+03 -0.10914779E+03 -0.10776541E+03 -0.10628878E+03
 -0.10471638E+03 -0.10304685E+03 -0.10127906E+03 -0.99412087E+02 -0.97445294E+02
 -0.95378328E+02 -0.93211162E+02 -0.90944124E+02 -0.88577918E+02 -0.86113651E+02
 -0.83552856E+02 -0.80897514E+02 -0.78150071E+02 -0.75313452E+02 -0.72391079E+02
 -0.69386879E+02 -0.66305292E+02 -0.63151277E+02 -0.59930314E+02 -0.56648402E+02
 -0.53312055E+02 -0.49928296E+02 -0.46504643E+02 -0.43049100E+02 -0.39570136E+02
 -0.36076664E+02 -0.32578023E+02 -0.29083946E+02 -0.25604534E+02 -0.22150223E+02
 -0.18731748E+02 -0.15360109E+02 -0.12046528E+02 -0.88024084E+01 -0.56392914E+01
 -0.25688106E+01  0.39735543E+00  0.32475320E+01  0.59700973E+01  0.85535330E+01
  0.10986476E+02  0.13257767E+02  0.15356507E+02  0.17272103E+02  0.18994323E+02
  0.20513343E+02  0.21819798E+02  0.22904828E+02  0.23760128E+02  0.24377986E+02
  0.24751327E+02  0.24873705E+02  0.24739211E+02  0.24364080E+02  0.23848702E+02
  0.23210660E+02  0.22452429E+02  0.21576802E+02  0.20586975E+02  0.19486477E+02
  0.18279138E+02  0.16969095E+02  0.15560734E+02  0.14058701E+02  0.12467874E+02
  0.10793327E+02  0.90403138E+01  0.72145068E+01  0.53224066E+01  0.33572077E+01
  0.13357539E+01 -0.12288998E+00  0.10922941E-01  0.19007019E-02 -0.60574847E-03
  0.53003577E-04  0.88102408E-05 -0.34165428E-05  0.50651243E-06 -0.80047050E-20
 Reciprocal Space Part
  0.16022557E+01  0.17905369E+01  0.23520161E+01  0.32766635E+01  0.45479738E+01
  0.61432777E+01  0.80341697E+01  0.10187042E+02  0.12563717E+02  0.15122157E+02
  0.17817251E+02  0.20601647E+02  0.23426628E+02  0.26242996E+02  0.29001966E+02
  0.31656044E+02  0.34159861E+02  0.36470971E+02  0.38550573E+02  0.40364159E+02
  0.41882072E+02  0.43079966E+02  0.43939152E+02  0.44446840E+02  0.44596255E+02
  0.44386649E+02  0.43823191E+02  0.42916748E+02  0.41683564E+02  0.40144848E+02
  0.38326268E+02  0.36257387E+02  0.33971023E+02  0.31502576E+02  0.28889323E+02
  0.26169688E+02  0.23382523E+02  0.20566399E+02  0.17758919E+02  0.14996078E+02
  0.12311678E+02  0.97367989E+01  0.72993425E+01  0.50236604E+01  0.29302597E+01
  0.10355977E+01 -0.64803586E+00 -0.21125496E+01 -0.33539967E+01 -0.43724415E+01
 -0.51717515E+01 -0.57593227E+01 -0.61457469E+01 -0.63444301E+01 -0.63711719E+01
 -0.62437178E+01 -0.59812934E+01 -0.56041329E+01 -0.51330121E+01 -0.45887945E+01
 -0.39920016E+01 -0.33624149E+01 -0.27187159E+01 -0.20781724E+01 -0.14563729E+01
 -0.86701534E+00 -0.32174970E+00  0.16992297E+00  0.60069719E+00  0.96545654E+00
  0.12612174E+01  0.14870273E+01  0.16438219E+01  0.17342482E+01  0.17624579E+01
  0.17338799E+01  0.16549771E+01  0.15329949E+01  0.13757082E+01  0.11911737E+01
  0.98749186E+00  0.77258604E+00  0.55400125E+00  0.33872801E+00  0.13305343E+00
 -0.57558112E-01 -0.22855346E+00 -0.37634794E+00 -0.49835200E+00 -0.59296832E+00
 -0.65956147E+00 -0.69840271E+00 -0.71059293E+00 -0.69796741E+00 -0.66298609E+00
 -0.60861345E+00 -0.53819191E+00 -0.45531288E+00 -0.36368926E+00 -0.26703288E+00
 Real Space Part
  0.73826824E+02  0.73805815E+02  0.73742719E+02  0.73637347E+02  0.73489381E+02
  0.73298381E+02  0.73063792E+02  0.72784951E+02  0.72461092E+02  0.72091358E+02
  0.71674815E+02  0.71210458E+02  0.70697229E+02  0.70134030E+02  0.69519738E+02
  0.68853224E+02  0.68133366E+02  0.67359070E+02  0.66529285E+02  0.65643026E+02
  0.64699387E+02  0.63697564E+02  0.62636874E+02  0.61516770E+02  0.60336863E+02
  0.59096936E+02  0.57796965E+02  0.56437133E+02  0.55017847E+02  0.53539751E+02
  0.52003741E+02  0.50410977E+02  0.48762894E+02  0.47061210E+02  0.45307936E+02
  0.43505381E+02  0.41656160E+02  0.39763193E+02  0.37829706E+02  0.35859236E+02
  0.33855622E+02  0.31823006E+02  0.29765821E+02  0.27688789E+02  0.25596908E+02
  0.23495438E+02  0.21389894E+02  0.19286021E+02  0.17189787E+02  0.15107355E+02
  0.13045070E+02  0.11009431E+02  0.90070732E+01  0.70447386E+01  0.51292531E+01
  0.32674989E+01  0.14663867E+01 -0.26717315E+00 -0.19262994E+01 -0.35041700E+01
 -0.49940516E+01 -0.63893307E+01 -0.76835432E+01 -0.88704050E+01 -0.99438417E+01
 -0.10898018E+02 -0.11727369E+02 -0.12426622E+02 -0.12990832E+02 -0.13415403E+02
 -0.13696111E+02 -0.13829103E+02 -0.13810845E+02 -0.13650403E+02 -0.13404814E+02
 -0.13084240E+02 -0.12690268E+02 -0.12224664E+02 -0.11689423E+02 -0.11086725E+02
 -0.10418927E+02 -0.96885550E+01 -0.88982772E+01 -0.80509111E+01 -0.71494038E+01
 -0.61968144E+01 -0.51963043E+01 -0.41512738E+01 -0.30656001E+01 -0.19354744E+01
 -0.77074394E+00  0.70926761E-01 -0.63041958E-02 -0.10969936E-02  0.34960885E-03
 -0.30591113E-04 -0.50848468E-05  0.19718640E-05 -0.29233459E-06  0.46876404E-20
 Non local Part
           1           2   1.46348098333823     
   6.90672174864341        10.2669444184691        10.2669444184691     
   15.2590431062951     
 Reciprocal Space Part
  0.00000000E+00  0.77076791E+00  0.15186918E+01  0.22214610E+01  0.28578190E+01
  0.34080579E+01  0.38544767E+01  0.41817898E+01  0.43774783E+01  0.44320742E+01
  0.43393725E+01  0.40965641E+01  0.37042899E+01  0.31666124E+01  0.24909075E+01
  0.16876804E+01  0.77030887E+00 -0.24527772E+00 -0.13409756E+01 -0.24969306E+01
 -0.36919980E+01 -0.49042266E+01 -0.61113553E+01 -0.72913097E+01 -0.84226872E+01
 -0.94852187E+01 -0.10460197E+02 -0.11330860E+02 -0.12082725E+02 -0.12703859E+02
 -0.13185092E+02 -0.13520154E+02 -0.13705747E+02 -0.13741548E+02 -0.13630137E+02
 -0.13376872E+02 -0.12989689E+02 -0.12478859E+02 -0.11856697E+02 -0.11137225E+02
 -0.10335819E+02 -0.94688284E+01 -0.85531844E+01 -0.76060158E+01 -0.66442696E+01
 -0.56843521E+01 -0.47417964E+01 -0.38309644E+01 -0.29647887E+01 -0.21545596E+01
 -0.14097604E+01 -0.73795301E+00 -0.14471565E+00  0.36636982E+00  0.79368137E+00
  0.11374749E+01  0.13997609E+01  0.15841453E+01  0.16956393E+01  0.17404462E+01
  0.17257297E+01  0.16593736E+01  0.15497363E+01  0.14054101E+01  0.12349889E+01
  0.10468509E+01  0.84896251E+00  0.64870503E+00  0.45272973E+00  0.26684246E+00
  0.96148381E-01 -0.56145182E-01 -0.18646092E+00 -0.29313243E+00 -0.37522355E+00
 -0.43269654E+00 -0.46632977E+00 -0.47761786E+00 -0.46865827E+00 -0.44202862E+00
 -0.40065917E+00 -0.34770437E+00 -0.28641781E+00 -0.22003385E+00 -0.15165941E+00
 -0.84178422E-01 -0.20171192E-01  0.38149825E-01  0.88986918E-01  0.13098635E+00
  0.16325017E+00  0.18533147E+00  0.19721435E+00  0.19928023E+00  0.19226280E+00
  0.17719360E+00  0.15534098E+00  0.12814486E+00  0.97149850E-01  0.63939204E-01
 Real Space Part
  0.00000000E+00 -0.87012287E+00 -0.17380945E+01 -0.26017666E+01 -0.34589971E+01
 -0.43076528E+01 -0.51456131E+01 -0.59707728E+01 -0.67810458E+01 -0.75743688E+01
 -0.83487050E+01 -0.91020478E+01 -0.98324255E+01 -0.10537906E+02 -0.11216599E+02
 -0.11866667E+02 -0.12486321E+02 -0.13073837E+02 -0.13627552E+02 -0.14145875E+02
 -0.14627292E+02 -0.15070373E+02 -0.15473775E+02 -0.15836254E+02 -0.16156666E+02
 -0.16433977E+02 -0.16667270E+02 -0.16855747E+02 -0.16998742E+02 -0.17095722E+02
 -0.17146296E+02 -0.17150218E+02 -0.17107396E+02 -0.17017895E+02 -0.16881943E+02
 -0.16699933E+02 -0.16472428E+02 -0.16200166E+02 -0.15884059E+02 -0.15525197E+02
 -0.15124848E+02 -0.14684457E+02 -0.14205651E+02 -0.13690230E+02 -0.13140170E+02
 -0.12557615E+02 -0.11944880E+02 -0.11304438E+02 -0.10638920E+02 -0.99511029E+01
 -0.92439058E+01 -0.85203786E+01 -0.77836933E+01 -0.70371326E+01 -0.62840787E+01
 -0.55280010E+01 -0.47724429E+01 -0.40210078E+01 -0.32773449E+01 -0.25451342E+01
 -0.18280704E+01 -0.11298479E+01 -0.45414332E+00  0.19540025E+00  0.81519044E+00
  0.14017024E+01  0.19514956E+01  0.24612308E+01  0.29276864E+01  0.33477748E+01
  0.37185576E+01  0.40372554E+01  0.43012441E+01  0.45110290E+01  0.46796275E+01
  0.48099541E+01  0.49029368E+01  0.49595578E+01  0.49808686E+01  0.49679816E+01
  0.49220688E+01  0.48443632E+01  0.47361512E+01  0.45987763E+01  0.44336337E+01
  0.42421663E+01  0.40258661E+01  0.37862657E+01  0.35249379E+01  0.32434904E+01
  0.29435637E+01  0.26268213E+01  0.22949522E+01  0.19496596E+01  0.15926987E+01
  0.12255989E+01  0.84991673E+00  0.47470029E+00  0.57938864E-01 -0.85462401E-15
 Reciprocal Space Part
  0.00000000E+00  0.40100099E-01  0.86970633E-01  0.14718790E+00  0.22694502E+00
  0.33187284E+00  0.46687562E+00  0.63598559E+00  0.84224028E+00  0.10875858E+01
  0.13728083E+01  0.16974962E+01  0.20600324E+01  0.24576189E+01  0.28863309E+01
  0.33412010E+01  0.38163290E+01  0.43050167E+01  0.47999221E+01  0.52932312E+01
  0.57768400E+01  0.62425455E+01  0.66822378E+01  0.70880906E+01  0.74527433E+01
  0.77694731E+01  0.80323491E+01  0.82363684E+01  0.83775685E+01  0.84531146E+01
  0.84613595E+01  0.84018753E+01  0.82754560E+01  0.80840923E+01  0.78309182E+01
  0.75201328E+01  0.71568982E+01  0.67472173E+01  0.62977947E+01  0.58158846E+01
  0.53091287E+01  0.47853900E+01  0.42525848E+01  0.37185189E+01  0.31907297E+01
  0.26763403E+01  0.21819266E+01  0.17134017E+01  0.12759196E+01  0.87379942E+00
  0.51047164E+00  0.18844725E+00 -0.90690916E-01 -0.32627475E+00 -0.51851681E+00
 -0.66845717E+00 -0.77789337E+00 -0.84929583E+00 -0.88571161E+00 -0.89065936E+00
 -0.86801860E+00 -0.82191638E+00 -0.75661432E+00 -0.67639900E+00 -0.58547832E+00
 -0.48788619E+00 -0.38739765E+00 -0.28745609E+00 -0.19111377E+00 -0.10098663E+00
 -0.19328202E-01  0.52509651E-01  0.11303228E+00  0.16163729E+00  0.19806771E+00
  0.22248232E+00  0.23541204E+00  0.23770922E+00  0.23049137E+00  0.21508163E+00
  0.19294772E+00  0.16564147E+00  0.13474050E+00  0.10179380E+00  0.68272564E-01
  0.35527420E-01  0.47529015E-02 -0.23040141E-01 -0.47043937E-01 -0.66664915E-01
 -0.81526771E-01 -0.91465932E-01 -0.96520098E-01 -0.96910700E-01 -0.93020291E-01
 -0.85365947E-01 -0.74569877E-01 -0.61328398E-01 -0.46380469E-01 -0.30476891E-01
 Real Space Part
  0.00000000E+00  0.50588350E+00  0.10106169E+01  0.15130517E+01  0.20120419E+01
  0.25064462E+01  0.29951288E+01  0.34769615E+01  0.39508252E+01  0.44156113E+01
  0.48702243E+01  0.53135830E+01  0.57446231E+01  0.61622992E+01  0.65655874E+01
  0.69534874E+01  0.73250255E+01  0.76792571E+01  0.80152700E+01  0.83321868E+01
  0.86291689E+01  0.89054189E+01  0.91601845E+01  0.93927617E+01  0.96024983E+01
  0.97887975E+01  0.99511212E+01  0.10088994E+02  0.10202005E+02  0.10289816E+02
  0.10352156E+02  0.10388836E+02  0.10399739E+02  0.10384836E+02  0.10344179E+02
  0.10277907E+02  0.10186248E+02  0.10069521E+02  0.99281369E+01  0.97626010E+01
  0.95735116E+01  0.93615621E+01  0.91275400E+01  0.88723273E+01  0.85968985E+01
  0.83023200E+01  0.79897477E+01  0.76604250E+01  0.73156792E+01  0.69569190E+01
  0.65856295E+01  0.62033690E+01  0.58117629E+01  0.54124995E+01  0.50073230E+01
  0.45980284E+01  0.41864540E+01  0.37744746E+01  0.33639942E+01  0.29569385E+01
  0.25552463E+01  0.21608617E+01  0.17757256E+01  0.14017668E+01  0.10408938E+01
  0.69498538E+00  0.36588235E+00  0.55378410E-01 -0.23478844E+00 -0.50294447E+00
 -0.74748837E+00 -0.96689730E+00 -0.11597283E+01 -0.13257089E+01 -0.14693910E+01
 -0.15919463E+01 -0.16938483E+01 -0.17755994E+01 -0.18377370E+01 -0.18808302E+01
 -0.19054791E+01 -0.19123155E+01 -0.19019999E+01 -0.18752224E+01 -0.18327008E+01
 -0.17751785E+01 -0.17034247E+01 -0.16182310E+01 -0.15204108E+01 -0.14107965E+01
 -0.12902388E+01 -0.11596016E+01 -0.10197632E+01 -0.87161070E+00 -0.71605739E+00
 -0.55391465E+00 -0.38600783E+00 -0.21660582E+00 -0.26518575E-01  0.37623424E-15
 PAW radial sets
         343   1.19574269838144     
(5E20.12)                                
 augmentation charges (non sperical)
  0.274558809759E+00  0.268395743372E+00 -0.161513472668E+00 -0.262665085500E+00 -0.258294652226E+00
 -0.390509743682E+00  0.268395743372E+00  0.262315450958E+00 -0.160241809490E+00 -0.260615317278E+00
 -0.256190631982E+00 -0.387605891797E+00 -0.161513472668E+00 -0.160241809490E+00 -0.833281856920E-01
 -0.147375743589E+00 -0.500586105507E-01 -0.131831136843E+00 -0.262665085500E+00 -0.260615317278E+00
 -0.147375743589E+00 -0.260256030243E+00 -0.917828981367E-01 -0.235265596835E+00 -0.258294652226E+00
 -0.256190631982E+00 -0.500586105507E-01 -0.917828981367E-01  0.497056623082E-02 -0.511347367847E-01
 -0.390509743682E+00 -0.387605891797E+00 -0.131831136843E+00 -0.235265596835E+00 -0.511347367847E-01
 -0.187679516377E+00
 uccopancies in atom
  0.140000000814E+01  0.000000000000E+00  0.000000000000E+00  0.000000000000E+00  0.000000000000E+00
  0.000000000000E+00  0.000000000000E+00  0.000000000000E+00  0.000000000000E+00  0.000000000000E+00
  0.000000000000E+00  0.000000000000E+00  0.000000000000E+00  0.000000000000E+00  0.999999999493E+00
  0.000000000000E+00  0.000000000000E+00  0.000000000000E+00  0.000000000000E+00  0.000000000000E+00
  0.000000000000E+00  0.000000000000E+00  0.000000000000E+00  0.000000000000E+00  0.000000000000E+00
  0.000000000000E+00  0.000000000000E+00  0.000000000000E+00  0.000000000000E+00  0.000000000000E+00
  0.000000000000E+00  0.000000000000E+00  0.000000000000E+00  0.000000000000E+00  0.000000000000E+00
  0.000000000000E+00
 grid
  0.668384193521E-04  0.690118380080E-04  0.712559308166E-04  0.735729959249E-04  0.759654062102E-04
  0.784356117097E-04  0.809861421295E-04  0.836196094359E-04  0.863387105293E-04  0.891462300070E-04
  0.920450430142E-04  0.950381181887E-04  0.981285207011E-04  0.101319415394E-03  0.104614070021E-03
  0.108015858598E-03  0.111528264853E-03  0.115154885797E-03  0.118899435407E-03  0.122765748429E-03
  0.126757784304E-03  0.130879631228E-03  0.135135510331E-03  0.139529780005E-03  0.144066940366E-03
  0.148751637864E-03  0.153588670037E-03  0.158582990430E-03  0.163739713663E-03  0.169064120670E-03
  0.174561664111E-03  0.180237973950E-03  0.186098863224E-03  0.192150333996E-03  0.198398583501E-03
  0.204850010493E-03  0.211511221796E-03  0.218389039073E-03  0.225490505809E-03  0.232822894528E-03
  0.240393714236E-03  0.248210718114E-03  0.256281911457E-03  0.264615559873E-03  0.273220197745E-03
  0.282104636974E-03  0.291277976004E-03  0.300749609134E-03  0.310529236144E-03  0.320626872228E-03
  0.331052858247E-03  0.341817871321E-03  0.352932935765E-03  0.364409434376E-03  0.376259120092E-03
  0.388494128025E-03  0.401126987894E-03  0.414170636851E-03  0.427638432732E-03  0.441544167737E-03
  0.455902082554E-03  0.470726880942E-03  0.486033744790E-03  0.501838349665E-03  0.518156880863E-03
  0.535006049985E-03  0.552403112054E-03  0.570365883180E-03  0.588912758813E-03  0.608062732572E-03
  0.627835415704E-03  0.648251057165E-03  0.669330564355E-03  0.691095524532E-03  0.713568226918E-03
  0.736771685522E-03  0.760729662715E-03  0.785466693558E-03  0.811008110932E-03  0.837380071482E-03
  0.864609582399E-03  0.892724529082E-03  0.921753703692E-03  0.951726834642E-03  0.982674617036E-03
  0.101462874411E-02  0.104762193968E-02  0.108168799166E-02  0.111686178667E-02  0.115317934574E-02
  0.119067786123E-02  0.122939573490E-02  0.126937261723E-02  0.131064944805E-02  0.135326849843E-02
  0.139727341401E-02  0.144270925966E-02  0.148962256566E-02  0.153806137534E-02  0.158807529428E-02
  0.163971554108E-02  0.169303499989E-02  0.174808827448E-02  0.180493174422E-02  0.186362362179E-02
  0.192422401280E-02  0.198679497734E-02  0.205140059356E-02  0.211810702324E-02  0.218698257960E-02
  0.225809779724E-02  0.233152550434E-02  0.240734089730E-02  0.248562161770E-02  0.256644783184E-02
  0.264990231282E-02  0.273607052534E-02  0.282504071316E-02  0.291690398954E-02  0.301175443049E-02
  0.310968917116E-02  0.321080850528E-02  0.331521598789E-02  0.342301854136E-02  0.353432656494E-02
  0.364925404777E-02  0.376791868562E-02  0.389044200147E-02  0.401694946990E-02  0.414757064559E-02
  0.428243929607E-02  0.442169353859E-02  0.456547598169E-02  0.471393387115E-02  0.486721924081E-02
  0.502548906830E-02  0.518890543573E-02  0.535763569577E-02  0.553185264293E-02  0.571173469059E-02
  0.589746605369E-02  0.608923693738E-02  0.628724373180E-02  0.649168921320E-02  0.670278275163E-02
  0.692074052532E-02  0.714578574206E-02  0.737814886784E-02  0.761806786279E-02  0.786578842494E-02
  0.812156424177E-02  0.838565725009E-02  0.865833790421E-02  0.893988545294E-02  0.923058822558E-02
  0.953074392718E-02  0.984065994339E-02  0.101606536553E-01  0.104910527644E-01  0.108321956284E-01
  0.111844316072E-01  0.115481214213E-01  0.119236375209E-01  0.123113644672E-01  0.127116993266E-01
  0.131250520769E-01  0.135518460274E-01  0.139925182525E-01  0.144475200390E-01  0.149173173485E-01
  0.154023912946E-01  0.159032386352E-01  0.164203722819E-01  0.169543218247E-01  0.175056340746E-01
  0.180748736234E-01  0.186626234224E-01  0.192694853785E-01  0.198960809716E-01  0.205430518901E-01
  0.212110606889E-01  0.219007914674E-01  0.226129505701E-01  0.233482673103E-01  0.241074947164E-01
  0.248914103037E-01  0.257008168703E-01  0.265365433192E-01  0.273994455074E-01  0.282904071220E-01
  0.292103405857E-01  0.301601879907E-01  0.311409220637E-01  0.321535471621E-01  0.331991003025E-01
  0.342786522227E-01  0.353933084782E-01  0.365442105744E-01  0.377325371357E-01  0.389595051121E-01
  0.402263710263E-01  0.415344322596E-01  0.428850283809E-01  0.442795425188E-01  0.457194027776E-01
  0.472060836999E-01  0.487411077771E-01  0.503260470078E-01  0.519625245083E-01  0.536522161747E-01
  0.553968523988E-01  0.571982198406E-01  0.590581632577E-01  0.609785873947E-01  0.629614589338E-01
  0.650088085087E-01  0.671227327843E-01  0.693053966037E-01  0.715590352054E-01  0.738859565124E-01
  0.762885434952E-01  0.787692566130E-01  0.813306363328E-01  0.839753057313E-01  0.867059731809E-01
  0.895254351238E-01  0.924365789353E-01  0.954423858813E-01  0.985459341705E-01  0.101750402108E+00
  0.105059071348E+00  0.108475330258E+00  0.112002677385E+00  0.115644725041E+00  0.119405203001E+00
  0.123287962323E+00  0.127296979292E+00  0.131436359492E+00  0.135710342009E+00  0.140123303775E+00
  0.144679764049E+00  0.149384389044E+00  0.154241996707E+00  0.159257561653E+00  0.164436220259E+00
  0.169783275924E+00  0.175304204499E+00  0.181004659899E+00  0.186890479888E+00  0.192967692059E+00
  0.199242520009E+00  0.205721389710E+00  0.212410936092E+00  0.219318009833E+00  0.226449684381E+00
  0.233813263194E+00  0.241416287221E+00  0.249266542621E+00  0.257372068743E+00  0.265741166354E+00
  0.274382406141E+00  0.283304637488E+00  0.292516997541E+00  0.302028920560E+00  0.311850147586E+00
  0.321990736415E+00  0.332461071895E+00  0.343271876564E+00  0.354434221631E+00  0.365959538313E+00
  0.377859629542E+00  0.390146682050E+00  0.402833278853E+00  0.415932412135E+00  0.429457496554E+00
  0.443422382976E+00  0.457841372667E+00  0.472729231932E+00  0.488101207239E+00  0.503973040835E+00
  0.520360986864E+00  0.537281828014E+00  0.554752892707E+00  0.572792072839E+00  0.591417842106E+00
  0.610649274924E+00  0.630506065961E+00  0.651008550306E+00  0.672177724294E+00  0.694035267010E+00
  0.716603562487E+00  0.739905722632E+00  0.763965610893E+00  0.788807866698E+00  0.814457930688E+00
  0.840942070770E+00  0.868287409018E+00  0.896521949447E+00  0.925674606694E+00  0.955775235628E+00
  0.986854661923E+00  0.101894471363E+01  0.105207825376E+01  0.108628921396E+01  0.112161262923E+01
  0.115808467386E+01  0.119574269838E+01  0.123462526792E+01  0.127477220162E+01  0.131622461345E+01
  0.135902495430E+01  0.140321705546E+01  0.144884617350E+01  0.149595903664E+01  0.154460389255E+01
  0.159483055782E+01  0.164669046894E+01  0.170023673500E+01  0.175552419205E+01  0.181260945928E+01
  0.187155099699E+01  0.193240916646E+01  0.199524629179E+01  0.206012672366E+01  0.212711690533E+01
  0.219628544058E+01  0.226770316405E+01  0.234144321372E+01  0.241758110584E+01  0.249619481227E+01
  0.257736484033E+01  0.266117431519E+01  0.274770906511E+01  0.283705770921E+01  0.292931174832E+01
  0.302456565863E+01  0.312291698848E+01  0.322446645822E+01  0.332931806339E+01  0.343757918117E+01
  0.354936068044E+01  0.366477703519E+01  0.378394644188E+01
 aepotential
  0.106717995703E+05  0.107224468738E+05  0.107661100831E+05  0.108022845041E+05  0.108304900186E+05
  0.108502762380E+05  0.108612284638E+05  0.108629733074E+05  0.108551838932E+05  0.108375848717E+05
  0.108099569910E+05  0.107721409548E+05  0.107240406963E+05  0.106656260237E+05  0.105969341217E+05
  0.105180705844E+05  0.104292090657E+05  0.103305904521E+05  0.102225207550E+05  0.101053681718E+05
  0.997955936446E+04  0.984557488012E+04  0.970394376171E+04  0.955523774870E+04  0.940006473362E+04
  0.923906198797E+04  0.907288928251E+04  0.890222127699E+04  0.872774104955E+04  0.855013244886E+04
  0.837007390359E+04  0.818823170773E+04  0.800525435614E+04  0.782176723572E+04  0.763836777201E+04
  0.745562153389E+04  0.727405875016E+04  0.709417172292E+04  0.691641272596E+04  0.674119275028E+04
  0.656888075312E+04  0.639980354833E+04  0.623424622502E+04  0.607245302717E+04  0.591462866033E+04
  0.576093996419E+04  0.561151784663E+04  0.546645946900E+04  0.532583059056E+04  0.518966802762E+04
  0.505798217767E+04  0.493075956060E+04  0.480796533841E+04  0.468954577958E+04  0.457543063910E+04
  0.446553543165E+04  0.435976357989E+04  0.425800842489E+04  0.416015508984E+04  0.406608219217E+04
  0.397566340226E+04  0.388876885027E+04  0.380526638385E+04  0.372502268307E+04  0.364790423859E+04
  0.357377820098E+04  0.350251311094E+04  0.343397951742E+04  0.336805049498E+04  0.330460207079E+04
  0.324351355917E+04  0.318466784373E+04  0.312795155821E+04  0.307325524947E+04  0.302047345766E+04
  0.296950477244E+04  0.292025183681E+04  0.287262133842E+04  0.282652394958E+04  0.278187426837E+04
  0.273859072604E+04  0.269659549146E+04  0.265581435081E+04  0.261617659776E+04  0.257761489806E+04
  0.254006516397E+04  0.250346642227E+04  0.246776068036E+04  0.243289279462E+04  0.239881034249E+04
  0.236546349006E+04  0.233280487526E+04  0.230078947867E+04  0.226937451605E+04  0.223851932078E+04
  0.220818523916E+04  0.217833553004E+04  0.214893526490E+04  0.211995123989E+04  0.209135188641E+04
  0.206310719108E+04  0.203518861894E+04  0.200756904192E+04  0.198022267165E+04  0.195312499844E+04
  0.192625273294E+04  0.189958375357E+04  0.187309705853E+04  0.184677272063E+04  0.182059184835E+04
  0.179453654926E+04  0.176858989855E+04  0.174273591115E+04  0.171695951772E+04  0.169124654476E+04
  0.166558369835E+04  0.163995855212E+04  0.161435953851E+04  0.158877594471E+04  0.156319791211E+04
  0.153761643993E+04  0.151202339323E+04  0.148641151512E+04  0.146077444349E+04  0.143510673244E+04
  0.140940387857E+04  0.138366235244E+04  0.135787963507E+04  0.133205426009E+04  0.130618586144E+04
  0.128027522661E+04  0.125432435560E+04  0.122833652534E+04  0.120231635893E+04  0.117626989949E+04
  0.115020468686E+04  0.112412983628E+04  0.109805611568E+04  0.107199602012E+04  0.104596383748E+04
  0.101997570130E+04  0.994049624818E+03  0.968205506818E+03  0.942465102282E+03  0.916851946974E+03
  0.891391226713E+03  0.866109582149E+03  0.841034843556E+03  0.816195695077E+03  0.791621278044E+03
  0.767340757220E+03  0.743382894281E+03  0.719775700335E+03  0.696546270959E+03  0.673720942352E+03
  0.651325935066E+03  0.629388661173E+03  0.607939840733E+03  0.587016476509E+03  0.566665549751E+03
  0.546948009752E+03  0.527942261949E+03  0.509745994698E+03  0.492474976932E+03  0.476257656383E+03
  0.461224649146E+03  0.447494688490E+03  0.435157605059E+03  0.424258664331E+03  0.414787215491E+03
  0.406672217440E+03  0.399785575259E+03  0.393952240891E+03  0.388964744861E+03  0.384599462686E+03
  0.380632296427E+03  0.376852089589E+03  0.373070669988E+03  0.369128978902E+03  0.364899359126E+03
  0.360284685032E+03  0.355215391320E+03  0.349645461461E+03  0.343548203788E+03  0.336912329177E+03
  0.329738595711E+03  0.322037124916E+03  0.313825395427E+03  0.305126858658E+03  0.295970088675E+03
  0.286388352028E+03  0.276419484902E+03  0.266105963400E+03  0.255495054561E+03  0.244638950424E+03
  0.233594790616E+03  0.222424507788E+03  0.211194477645E+03  0.199975040650E+03  0.188840095607E+03
  0.177867114371E+03  0.167138035455E+03  0.156741410486E+03  0.146775708282E+03  0.137352707070E+03
  0.128598562776E+03  0.120649152582E+03  0.113636749179E+03  0.107667731672E+03  0.102795111485E+03
  0.989933013554E+02  0.961442500301E+02  0.940441628808E+02  0.924358574503E+02  0.910582981169E+02
  0.896904371384E+02  0.881686041231E+02  0.863779623839E+02  0.842354162320E+02  0.816785856302E+02
  0.786631529680E+02  0.751635933483E+02  0.711728523393E+02  0.666999546543E+02  0.617666904251E+02
  0.564047153209E+02  0.506537263979E+02  0.445607164252E+02  0.381799573938E+02  0.315732088226E+02
  0.248096205090E+02  0.179648088108E+02  0.111188272026E+02  0.435338483952E+01 -0.225005528798E+01
 -0.860800556547E+01 -0.146245215027E+02 -0.201717964707E+02 -0.250706668168E+02 -0.290931283732E+02
 -0.320139637800E+02 -0.337218780068E+02 -0.343512279218E+02 -0.343124804971E+02 -0.341050127530E+02
 -0.340517606916E+02 -0.342325407253E+02 -0.346103459623E+02 -0.351522552458E+02 -0.358675968635E+02
 -0.367936856877E+02 -0.379694519286E+02 -0.394176857977E+02 -0.411403937080E+02 -0.431227166932E+02
 -0.453393213827E+02 -0.477596772964E+02 -0.503512758514E+02 -0.530811729858E+02 -0.559165256168E+02
 -0.588246620762E+02 -0.617730240320E+02 -0.647291762208E+02 -0.676609773938E+02 -0.705369682474E+02
 -0.733269063868E+02 -0.760023653649E+02 -0.785371776639E+02 -0.809076306582E+02 -0.830923237322E+02
 -0.850721531390E+02 -0.868310761423E+02 -0.883583118219E+02 -0.896518139171E+02 -0.907215344562E+02
 -0.915900656795E+02 -0.922896191129E+02 -0.928556774660E+02 -0.933205975402E+02 -0.937094685251E+02
 -0.940389739113E+02 -0.943183572053E+02 -0.945511702354E+02 -0.947369321758E+02 -0.948724168584E+02
 -0.949526128630E+02 -0.949714604804E+02 -0.949224314508E+02 -0.947990155732E+02 -0.945950965835E+02
 -0.943052295370E+02 -0.939248756657E+02 -0.934505262041E+02 -0.928798118891E+02 -0.922115410488E+02
 -0.914457166404E+02 -0.905835400338E+02 -0.896273137984E+02 -0.885804234032E+02 -0.874472239165E+02
 -0.862329388938E+02 -0.849435453097E+02 -0.835856489634E+02 -0.821663536277E+02 -0.806931232725E+02
 -0.791736376102E+02 -0.776156462902E+02 -0.760268217745E+02 -0.744146256411E+02 -0.727861868252E+02
 -0.711482086665E+02 -0.695068930166E+02 -0.678678959464E+02 -0.662362977533E+02 -0.646165819091E+02
 -0.630126269290E+02 -0.614276877942E+02 -0.598643851603E+02 -0.583246896744E+02 -0.568099230843E+02
 -0.553207818595E+02 -0.538573990424E+02 -0.524194528498E+02 -0.510063190565E+02 -0.496172583312E+02
 -0.482515875299E+02 -0.469088886678E+02 -0.455891001452E+02 -0.442926063732E+02 -0.430202430411E+02
 -0.417732477753E+02 -0.405531616919E+02 -0.393616937823E+02 -0.382005616014E+02 -0.370713235166E+02
 -0.359752199844E+02 -0.349130428284E+02 -0.338850503493E+02 -0.328909406237E+02 -0.319298858596E+02
 -0.310006195321E+02 -0.301015588218E+02 -0.292309405227E+02
 core charge-density
  0.172207665180E+00  0.181515234180E+00  0.191321668940E+00  0.201653353851E+00  0.212538037445E+00
  0.224004900155E+00  0.236084625201E+00  0.248809472708E+00  0.262213357194E+00  0.276331928548E+00
  0.291202656625E+00  0.306864919588E+00  0.323360096133E+00  0.340731661724E+00  0.359025288968E+00
  0.378288952276E+00  0.398573036921E+00  0.419930452655E+00  0.442416751976E+00  0.466090253210E+00
  0.491012168503E+00  0.517246736861E+00  0.544861362335E+00  0.573926757475E+00  0.604517092132E+00
  0.636710147723E+00  0.670587476998E+00  0.706234569421E+00  0.743741022165E+00  0.783200716801E+00
  0.824712001647E+00  0.868377879810E+00  0.914306202852E+00  0.962609870041E+00  0.101340703309E+01
  0.106682130621E+01  0.112298198145E+01  0.118202424886E+01  0.124408942154E+01  0.130932516494E+01
  0.137788573036E+01  0.144993219191E+01  0.152563268671E+01  0.160516265751E+01  0.168870509731E+01
  0.177645079499E+01  0.186859858131E+01  0.196535557421E+01  0.206693742236E+01  0.217356854584E+01
  0.228548237249E+01  0.240292156861E+01  0.252613826231E+01  0.265539425767E+01  0.279096123787E+01
  0.293312095503E+01  0.308216540444E+01  0.323839698057E+01  0.340212861214E+01  0.357368387305E+01
  0.375339706610E+01  0.394161327560E+01  0.413868838543E+01  0.434498905797E+01  0.456089266976E+01
  0.478678719900E+01  0.502307105971E+01  0.527015287721E+01  0.552845119903E+01  0.579839413516E+01
  0.608041892103E+01  0.637497139636E+01  0.668250539267E+01  0.700348202170E+01  0.733836885692E+01
  0.768763899967E+01  0.805177002134E+01  0.843124277272E+01  0.882654005112E+01  0.923814511603E+01
  0.966654004355E+01  0.101122039099E+02  0.105756107940E+02  0.110572275899E+02  0.115575116188E+02
  0.120769080311E+02  0.126158469901E+02  0.131747406284E+02  0.137539797688E+02  0.143539304022E+02
  0.149749299183E+02  0.156172830813E+02  0.162812577500E+02  0.169670803390E+02  0.176749310217E+02
  0.184049386788E+02  0.191571755972E+02  0.199316519273E+02  0.207283099128E+02  0.215470179072E+02
  0.223875641981E+02  0.232496506654E+02  0.241328863033E+02  0.250367806419E+02  0.259607371136E+02
  0.269040464107E+02  0.278658798948E+02  0.288452831196E+02  0.298411695430E+02  0.308523145088E+02
  0.318773495894E+02  0.329147573911E+02  0.339628669302E+02  0.350198497021E+02  0.360837165704E+02
  0.371523156181E+02  0.382233311069E+02  0.392942837020E+02  0.403625321289E+02  0.414252764304E+02
  0.424795630037E+02  0.435222915948E+02  0.445502244336E+02  0.455599976892E+02  0.465481354202E+02
  0.475110661904E+02  0.484451425039E+02  0.493466632018E+02  0.502118989385E+02  0.510371208302E+02
  0.518186323357E+02  0.525528043901E+02  0.532361137650E+02  0.538651845782E+02  0.544368328124E+02
  0.549481136351E+02  0.553963712380E+02  0.557792908269E+02  0.560949523081E+02  0.563418851160E+02
  0.565191235283E+02  0.566262617095E+02  0.566635076118E+02  0.566317347588E+02  0.565325308269E+02
  0.563682418391E+02  0.561420106920E+02  0.558578086535E+02  0.555204584021E+02  0.551356471323E+02
  0.547099282265E+02  0.542507100031E+02  0.537662300878E+02  0.532655140403E+02  0.527583169863E+02
  0.522550471843E+02  0.517666706726E+02  0.513045964268E+02  0.508805417900E+02  0.505063783288E+02
  0.501939587201E+02  0.499549257717E+02  0.498005052354E+02  0.497412846664E+02  0.497869812187E+02
  0.499462019001E+02  0.502262007143E+02  0.506326370130E+02  0.511693414865E+02  0.518380951930E+02
  0.526384286077E+02  0.535674476791E+02  0.546196941827E+02  0.557870477415E+02  0.570586767467E+02
  0.584210450589E+02  0.598579807517E+02  0.613508122720E+02  0.628785762083E+02  0.644182993833E+02
  0.659453562188E+02  0.674339002719E+02  0.688573665286E+02  0.701890385106E+02  0.714026715323E+02
  0.724731606312E+02  0.733772388432E+02  0.740941887241E+02  0.746065474255E+02  0.749007833581E+02
  0.749679206365E+02  0.748040862581E+02  0.744109544533E+02  0.737960629989E+02  0.729729776498E+02
  0.719612832996E+02  0.707863841292E+02  0.694790998610E+02  0.680750512927E+02  0.666138354612E+02
  0.651379989109E+02  0.636918264029E+02  0.623199716676E+02  0.610659660907E+02  0.599706501280E+02
  0.590705802671E+02  0.583964711070E+02  0.579717371396E+02  0.578112017120E+02  0.579200410244E+02
  0.582930282266E+02  0.589141368403E+02  0.597565531096E+02  0.607831317508E+02  0.619473121887E+02
  0.631944902303E+02  0.644638153772E+02  0.656903639904E+02  0.668076172126E+02  0.677501532375E+02
  0.684564452501E+02  0.688716414939E+02  0.689501947367E+02  0.686582063381E+02  0.679753556535E+02
  0.668962983942E+02  0.654314375320E+02  0.636069967352E+02  0.614643583279E+02  0.590586639911E+02
  0.564567154072E+02  0.537342515434E+02  0.509727172544E+02  0.482556715759E+02  0.456650110083E+02
  0.432772004720E+02  0.411597101085E+02  0.393678481736E+02  0.379421591238E+02  0.369065242675E+02
  0.362670655263E+02  0.360119194547E+02  0.361119195544E+02  0.365221958372E+02  0.371846482356E+02
  0.380311210310E+02  0.389870136287E+02  0.399750594488E+02  0.409190887425E+02  0.417475970682E+02
  0.423969564118E+02  0.428141014547E+02  0.429585495472E+02  0.428036582248E+02  0.423370818581E+02
  0.415604484081E+02  0.404883294236E+02  0.391466168754E+02  0.375704478655E+02  0.358018329045E+02
  0.338871462193E+02  0.318746289234E+02  0.298120396294E+02  0.277445646426E+02  0.257130723216E+02
  0.237527692488E+02  0.218922850933E+02  0.201531871787E+02  0.185498990882E+02  0.170899825818E+02
  0.157747206863E+02  0.145999331417E+02  0.135569518688E+02  0.126336851655E+02  0.118157057682E+02
  0.110873050446E+02  0.104324632290E+02  0.983570196922E+01  0.928278109379E+01  0.876122509825E+01
  0.826067273812E+01  0.777305587163E+01  0.729262357207E+01  0.681583437770E+01  0.634114352722E+01
  0.586871376969E+01  0.540007826402E+01  0.493778241440E+01  0.448502841396E+01  0.404534242400E+01
  0.362227971244E+01  0.321917802139E+01  0.283896521705E+01  0.248402261019E+01  0.215610200965E+01
  0.185629156819E+01  0.158502363985E+01  0.134211693217E+01  0.112684331860E+01  0.938012230024E+00
  0.774064143009E+00  0.633166550100E+00  0.513306846835E+00  0.412377867358E+00  0.328253088333E+00
  0.258849716964E+00  0.202178927071E+00  0.156383371689E+00  0.119762767255E+00  0.907888139231E-01
  0.681110042566E-01  0.505550018979E-01  0.371152734355E-01  0.269435608565E-01  0.193346205491E-01
  0.137104531270E-01  0.960402979535E-02  0.664330202196E-02  0.453607499112E-02  0.305613984346E-02
  0.203090034422E-02  0.133059848632E-02  0.859140878597E-03  0.546451988035E-03  0.342228734680E-03
  0.210940100593E-03  0.127901467221E-03  0.762525268052E-04  0.446761705270E-04  0.257105915338E-04
  0.145252504703E-04  0.805118978866E-05  0.437580860115E-05  0.233046287136E-05  0.121540777630E-05
  0.620289892156E-06  0.309559522412E-06  0.150953073460E-06  0.718700844660E-07  0.333819925434E-07
  0.151138120595E-07  0.666444653864E-08  0.285959404366E-08
 kinetic energy-density
  0.424735394468E+07  0.421527718747E+07  0.418380104668E+07  0.415292721192E+07  0.412265739580E+07
  0.409299332614E+07  0.406393677431E+07  0.403548956532E+07  0.400765358583E+07  0.398043081501E+07
  0.395382332297E+07  0.392783329751E+07  0.390246305574E+07  0.387771506110E+07  0.385359193645E+07
  0.383009648251E+07  0.380723169079E+07  0.378500076456E+07  0.376340712564E+07  0.374245443071E+07
  0.372214659160E+07  0.370248777811E+07  0.368348243893E+07  0.366513531392E+07  0.364745142435E+07
  0.363043612690E+07  0.361409506616E+07  0.359843423064E+07  0.358345993259E+07  0.356917883583E+07
  0.355559793134E+07  0.354272457526E+07  0.353056647568E+07  0.351913169787E+07  0.350842867482E+07
  0.349846620236E+07  0.348925345411E+07  0.348079997012E+07  0.347311567116E+07  0.346621085655E+07
  0.346009620662E+07  0.345478279019E+07  0.345028206088E+07  0.344660586240E+07  0.344376643341E+07
  0.344177640634E+07  0.344064881175E+07  0.344039707989E+07  0.344103504231E+07  0.344257693313E+07
  0.344503739014E+07  0.344843145432E+07  0.345277456957E+07  0.345808258080E+07  0.346437173108E+07
  0.347165865755E+07  0.347996038569E+07  0.348929432200E+07  0.349967824463E+07  0.351113029194E+07
  0.352366894859E+07  0.353731302898E+07  0.355208165782E+07  0.356799424714E+07  0.358507047042E+07
  0.360333023193E+07  0.362279363286E+07  0.364348093198E+07  0.366541250159E+07  0.368860878004E+07
  0.371309021229E+07  0.373887719509E+07  0.376599000402E+07  0.379444872023E+07  0.382427314751E+07
  0.385548272255E+07  0.388809641444E+07  0.392213261534E+07  0.395760902492E+07  0.399454251872E+07
  0.403294900823E+07  0.407284329363E+07  0.411423889498E+07  0.415714787996E+07  0.420158067554E+07
  0.424754586121E+07  0.429504995456E+07  0.434409717964E+07  0.439468921618E+07  0.444682494231E+07
  0.450050014866E+07  0.455570725047E+07  0.461243497008E+07  0.467066801113E+07  0.473038671599E+07
  0.479156670087E+07  0.485417848330E+07  0.491818708778E+07  0.498355163957E+07  0.505022494684E+07
  0.511815306569E+07  0.518727485965E+07  0.525752154625E+07  0.532881623972E+07  0.540107348717E+07
  0.547419880646E+07  0.554808822255E+07  0.562262781422E+07  0.569769326743E+07  0.577314944648E+07
  0.584884998449E+07  0.592463690099E+07  0.600034025269E+07  0.607577782385E+07  0.615075486550E+07
  0.622506388915E+07  0.629848452753E+07  0.637078346704E+07  0.644171446629E+07  0.651101846725E+07
  0.657842381259E+07  0.664364657745E+07  0.670639102905E+07  0.676635022385E+07  0.682320675362E+07
  0.687663365145E+07  0.692629546793E+07  0.697184952717E+07  0.701294737099E+07  0.704923639975E+07
  0.708036171513E+07  0.710596816928E+07  0.712570262310E+07  0.713921641243E+07  0.714616802011E+07
  0.714622594646E+07  0.713907177007E+07  0.712440338229E+07  0.710193838071E+07  0.707141759750E+07
  0.703260873330E+07  0.698531006885E+07  0.692935421221E+07  0.686461184158E+07  0.679099539436E+07
  0.670846265052E+07  0.661702015154E+07  0.651672639487E+07  0.640769473600E+07  0.629009593329E+07
  0.616416026341E+07  0.603017913801E+07  0.588850615328E+07  0.573955750414E+07  0.558381170000E+07
  0.542180852679E+07  0.525414720090E+07  0.508148367569E+07  0.490452706595E+07  0.472403516785E+07
  0.454080906363E+07  0.435568681305E+07  0.416953625052E+07  0.398324692617E+07  0.379772125441E+07
  0.361386492365E+07  0.343257693810E+07  0.325473882053E+07  0.308120400386E+07  0.291278695546E+07
  0.275025248896E+07  0.259430540508E+07  0.244558064072E+07  0.230463410090E+07  0.217193434889E+07
  0.204785533119E+07  0.193267031509E+07  0.182654721124E+07  0.172954544271E+07  0.164161450460E+07
  0.156259433176E+07  0.149221755974E+07  0.143011372705E+07  0.137581542274E+07  0.132876634002E+07
  0.128833114859E+07  0.125380705365E+07  0.122443686214E+07  0.119942333371E+07  0.117794455261E+07
  0.115917001980E+07  0.114227713086E+07  0.112646767906E+07  0.111098400196E+07  0.109512437800E+07
  0.107825727343E+07  0.105983404945E+07  0.103939975316E+07  0.101660164943E+07  0.991195191427E+06
  0.963047187679E+06  0.932135993111E+06  0.898548632659E+06  0.862474859013E+06  0.824198236160E+06
  0.784084441916E+06  0.742567081544E+06  0.700131416657E+06  0.657296533862E+06  0.614596580817E+06
  0.572561843630E+06  0.531700274938E+06  0.492480342302E+06  0.455315849402E+06  0.420552892228E+06
  0.388459908727E+06  0.359220708336E+06  0.332930897315E+06  0.309597818296E+06  0.289144017672E+06
  0.271414087654E+06  0.256184554144E+06  0.243176318458E+06  0.232069024639E+06  0.222516628838E+06
  0.214163397549E+06  0.206659558210E+06  0.199675863968E+06  0.192916414603E+06  0.186129179607E+06
  0.179113804696E+06  0.171726429300E+06  0.163881404052E+06  0.155549961120E+06  0.146756059123E+06
  0.137569779568E+06  0.128098784626E+06  0.118478424599E+06  0.108861090418E+06  0.994053960219E+05
  0.902656792317E+05  0.815824967255E+05  0.734747575034E+05  0.660341114395E+05  0.593219794267E+05
  0.533689680213E+05  0.481760316602E+05  0.437168862695E+05  0.399416573071E+05  0.367816252554E+05
  0.341546545578E+05  0.319709174485E+05  0.301384873824E+05  0.285684356443E+05  0.271791320736E+05
  0.258995397253E+05  0.246713975539E+05  0.234502896628E+05  0.222056897016E+05  0.209201360338E+05
  0.195877352237E+05  0.182122077833E+05  0.168046861608E+05  0.153814529297E+05  0.139617829841E+05
  0.125659962759E+05  0.112138228289E+05  0.992310999717E+04  0.870890849535E+04  0.758288680177E+04
  0.655309025930E+04  0.562396019599E+04  0.479657118273E+04  0.406902571327E+04  0.343694782340E+04
  0.289404806320E+04  0.243266181844E+04  0.204430285693E+04  0.172014005005E+04  0.145140528773E+04
  0.122971635790E+04  0.104731416045E+04  0.897219865529E+03  0.773321282967E+03  0.670399678474E+03
  0.584108863241E+03  0.510918253640E+03  0.448031106395E+03  0.393287995572E+03  0.345064089135E+03
  0.302167950503E+03  0.263746218090E+03  0.229198933266E+03  0.198107018421E+03  0.170173008291E+03
  0.145174863150E+03  0.122931454279E+03  0.103279184269E+03  0.860568828810E+02  0.710977492642E+02
  0.582264969104E+02  0.472600311803E+02  0.380103297685E+02  0.302884382717E+02  0.239087593778E+02
  0.186930607663E+02  0.144738409969E+02  0.110968668384E+02  0.842283037741E+01  0.632816930120E+01
  0.470515585181E+01  0.346139235392E+01  0.251886222253E+01  0.181267977982E+01  0.128966635986E+01
  0.906859135116E+00  0.630035664422E+00  0.432314930172E+00  0.292875325505E+00  0.195813109646E+00
  0.129151168743E+00  0.839976050964E-01  0.538463405229E-01  0.340071597893E-01  0.211499732461E-01
  0.129470754310E-01  0.779739818200E-02  0.461778572106E-02  0.268787272692E-02  0.153692533385E-02
  0.862851202085E-03  0.475354645583E-03  0.256829964711E-03  0.136004502122E-03  0.705437993948E-04
  0.358149797175E-04  0.177851296036E-04  0.863189709687E-05  0.409136355705E-05  0.189227757540E-05
  0.853271258696E-06  0.374796150672E-06  0.160221193364E-06
 mkinetic energy-density pseudized
  0.383685596743E-05  0.409044297925E-05  0.436079016460E-05  0.464900524350E-05  0.495626914783E-05
  0.528384086009E-05  0.563306257196E-05  0.600536518374E-05  0.640227416739E-05  0.682541581693E-05
  0.727652391205E-05  0.775744682208E-05  0.827015507949E-05  0.881674945396E-05  0.939946956002E-05
  0.100207030337E-04  0.106829953156E-04  0.113890600805E-04  0.121417903564E-04  0.129442703786E-04
  0.137997882266E-04  0.147118492971E-04  0.156841906666E-04  0.167207964041E-04  0.178259138951E-04
  0.190040712447E-04  0.202600958316E-04  0.215991340870E-04  0.230266725822E-04  0.245485605089E-04
  0.261710336457E-04  0.279007399085E-04  0.297447665899E-04  0.317106693979E-04  0.338065034156E-04
  0.360408561050E-04  0.384228824940E-04  0.409623426876E-04  0.436696418590E-04  0.465558728837E-04
  0.496328617912E-04  0.529132162209E-04  0.564103770804E-04  0.601386736180E-04  0.641133821352E-04
  0.683507885799E-04  0.728682552754E-04  0.776842920610E-04  0.828186321340E-04  0.882923129034E-04
  0.941277621886E-04  0.100348890115E-03  0.106981187081E-03  0.114051828204E-03  0.121589784666E-03
  0.129625942418E-03  0.138193228732E-03  0.147326747119E-03  0.157063921154E-03  0.167444647820E-03
  0.178511460979E-03  0.190309705646E-03  0.202887723785E-03  0.216297052385E-03  0.230592634619E-03
  0.245833044974E-03  0.262080729240E-03  0.279402260382E-03  0.297868611302E-03  0.317555445645E-03
  0.338543427814E-03  0.360918553479E-03  0.384772501927E-03  0.410203011702E-03  0.437314281065E-03
  0.466217394931E-03  0.497030780010E-03  0.529880690039E-03  0.564901723074E-03  0.602237372975E-03
  0.642040617339E-03  0.684474544283E-03  0.729713020657E-03  0.777941404414E-03  0.829357304061E-03
  0.884171388301E-03  0.942608249183E-03  0.100490732229E-02  0.107132386775E-02  0.114213001608E-02
  0.121761588310E-02  0.129809075864E-02  0.138388437365E-02  0.147534825118E-02  0.157285714657E-02
  0.167681058284E-02  0.178763448751E-02  0.190578293764E-02  0.203174002014E-02  0.216602181505E-02
  0.230917850985E-02  0.246179665346E-02  0.262450155927E-02  0.279795986690E-02  0.298288227319E-02
  0.318002644376E-02  0.339020011686E-02  0.361426441237E-02  0.385313735934E-02  0.410779765676E-02
  0.437928868265E-02  0.466872276816E-02  0.497728575393E-02  0.530624184757E-02  0.565693880204E-02
  0.603081343607E-02  0.642939751930E-02  0.685432404625E-02  0.730733392461E-02  0.779028310540E-02
  0.830515018412E-02  0.885404450387E-02  0.943921479370E-02  0.100630583775E-01  0.107281309911E-01
  0.114371572472E-01  0.121930417923E-01  0.129988811994E-01  0.138579766461E-01  0.147738474304E-01
  0.157502453775E-01  0.167911701992E-01  0.179008858656E-01  0.190839380584E-01  0.203451727753E-01
  0.216897561627E-01  0.231231956564E-01  0.246513625175E-01  0.262805158543E-01  0.280173282294E-01
  0.298689129550E-01  0.318428531880E-01  0.339472329433E-01  0.361906701519E-01  0.385823518972E-01
  0.411320719730E-01  0.438502709167E-01  0.467480786783E-01  0.498373600999E-01  0.531307633889E-01
  0.566417717822E-01  0.603847586092E-01  0.643750459775E-01  0.686289673174E-01  0.731639340380E-01
  0.779985065638E-01  0.831524700371E-01  0.886469149919E-01  0.945043233224E-01  0.100748659891E+00
  0.107405470144E+00  0.114501984125E+00  0.122067227296E+00  0.130132138623E+00  0.138729696377E+00
  0.147895052163E+00  0.157665673705E+00  0.168081496949E+00  0.179185088087E+00  0.191021816139E+00
  0.203640036770E+00  0.217091288059E+00  0.231430498987E+00  0.246716211454E+00  0.263010816679E+00
  0.280380806907E+00  0.298897043371E+00  0.318635041557E+00  0.339675274841E+00  0.362103497647E+00
  0.386011089356E+00  0.411495420243E+00  0.438660240804E+00  0.467616095910E+00  0.498480765314E+00
  0.531379732103E+00  0.566446680786E+00  0.603824026806E+00  0.643663479334E+00  0.686126639324E+00
  0.731385634889E+00  0.779623796173E+00  0.831036371983E+00  0.885831290555E+00  0.944229966941E+00
  0.100646815960E+01  0.107279687885E+01  0.114348335007E+01  0.121881203435E+01  0.129908570984E+01
  0.138462661655E+01  0.147577766803E+01  0.157290373298E+01  0.167639299009E+01  0.178665835936E+01
  0.190413901331E+01  0.202930197130E+01  0.216264378013E+01  0.230469228426E+01  0.245600848848E+01
  0.261718851597E+01  0.278886566442E+01  0.297171256224E+01  0.316644342704E+01  0.337381642753E+01
  0.359463614968E+01  0.382975616717E+01  0.408008171526E+01  0.434657246598E+01  0.463024540171E+01
  0.493217778217E+01  0.525351019851E+01  0.559544970599E+01  0.595927302435E+01  0.634632979225E+01
  0.675804585907E+01  0.719592659348E+01  0.766156018423E+01  0.815662090369E+01  0.868287229914E+01
  0.924217027078E+01  0.983646598790E+01  0.104678085873E+02  0.111383475879E+02  0.118503349470E+02
  0.126061266697E+02  0.134081838722E+02  0.142590731849E+02  0.151614663635E+02  0.161181389611E+02
  0.171319678916E+02  0.182059276963E+02  0.193430852978E+02  0.205465930024E+02  0.218196794812E+02
  0.231656384320E+02  0.245878145875E+02  0.260895867027E+02  0.276743471162E+02  0.293454774397E+02
  0.311063198920E+02  0.329601437495E+02  0.349101063471E+02  0.369592080219E+02  0.391102403553E+02
  0.413657270358E+02  0.437278566420E+02  0.461984066239E+02  0.487786577633E+02  0.514692984034E+02
  0.542703177790E+02  0.571808878419E+02  0.601992330767E+02  0.633224879535E+02  0.665465418568E+02
  0.698658716040E+02  0.732733620044E+02  0.767601153524E+02  0.803152512896E+02  0.839256991450E+02
  0.875759856715E+02  0.912480220746E+02  0.949208953753E+02  0.985706704959E+02  0.102170210998E+03
  0.105689028161E+03  0.109093170029E+03  0.112345164217E+03  0.115404030531E+03  0.118225381828E+03
  0.120761633924E+03  0.122962347555E+03  0.124774727286E+03  0.126144303588E+03  0.127015824682E+03
  0.127334383867E+03  0.127046805287E+03  0.126103305964E+03  0.124459443565E+03  0.122078347095E+03
  0.118933210529E+03  0.115010006388E+03  0.110310346551E+03  0.104854380378E+03  0.986835750164E+02
  0.918631695971E+02  0.844840347777E+02  0.766636036189E+02  0.685454727928E+02  0.602972102468E+02
  0.521058551568E+02  0.441705699930E+02  0.366919183208E+02  0.298573151404E+02  0.238223526972E+02
  0.186879704251E+02  0.144738409969E+02  0.110968668384E+02  0.842283037741E+01  0.632816930120E+01
  0.470515585181E+01  0.346139235392E+01  0.251886222253E+01  0.181267977982E+01  0.128966635986E+01
  0.906859135116E+00  0.630035664422E+00  0.432314930172E+00  0.292875325505E+00  0.195813109646E+00
  0.129151168743E+00  0.839976050964E-01  0.538463405229E-01  0.340071597893E-01  0.211499732461E-01
  0.129470754310E-01  0.779739818200E-02  0.461778572106E-02  0.268787272692E-02  0.153692533385E-02
  0.862851202085E-03  0.475354645583E-03  0.256829964711E-03  0.136004502122E-03  0.705437993948E-04
  0.358149797175E-04  0.177851296036E-04  0.863189709687E-05  0.409136355705E-05  0.189227757540E-05
  0.853271258696E-06  0.374796150672E-06  0.160221193364E-06
 local pseudopotential core
 -0.188560680721E+03 -0.188561122413E+03 -0.188561550191E+03 -0.188561964493E+03 -0.188562365744E+03
 -0.188562754356E+03 -0.188563130724E+03 -0.188563495236E+03 -0.188563848264E+03 -0.188564190169E+03
 -0.188564521301E+03 -0.188564842000E+03 -0.188565152594E+03 -0.188565453400E+03 -0.188565744726E+03
 -0.188566026871E+03 -0.188566300123E+03 -0.188566564762E+03 -0.188566821058E+03 -0.188567069274E+03
 -0.188567309663E+03 -0.188567542473E+03 -0.188567767940E+03 -0.188567986295E+03 -0.188568197761E+03
 -0.188568402555E+03 -0.188568600886E+03 -0.188568792956E+03 -0.188568978962E+03 -0.188569159094E+03
 -0.188569333535E+03 -0.188569502464E+03 -0.188569666054E+03 -0.188569824470E+03 -0.188569977874E+03
 -0.188570126423E+03 -0.188570270269E+03 -0.188570409557E+03 -0.188570544429E+03 -0.188570675023E+03
 -0.188570801471E+03 -0.188570923901E+03 -0.188571042438E+03 -0.188571157202E+03 -0.188571268309E+03
 -0.188571375872E+03 -0.188571479998E+03 -0.188571580794E+03 -0.188571678360E+03 -0.188571772794E+03
 -0.188571864192E+03 -0.188571952645E+03 -0.188572038241E+03 -0.188572121065E+03 -0.188572201200E+03
 -0.188572278726E+03 -0.188572353717E+03 -0.188572426249E+03 -0.188572496392E+03 -0.188572564215E+03
 -0.188572629783E+03 -0.188572693160E+03 -0.188572754405E+03 -0.188572813578E+03 -0.188572870734E+03
 -0.188572925927E+03 -0.188572979206E+03 -0.188573030623E+03 -0.188573080221E+03 -0.188573128047E+03
 -0.188573174141E+03 -0.188573218543E+03 -0.188573261291E+03 -0.188573302420E+03 -0.188573341963E+03
 -0.188573379950E+03 -0.188573416411E+03 -0.188573451371E+03 -0.188573484854E+03 -0.188573516881E+03
 -0.188573547474E+03 -0.188573576647E+03 -0.188573604417E+03 -0.188573630794E+03 -0.188573655789E+03
 -0.188573679409E+03 -0.188573701658E+03 -0.188573722538E+03 -0.188573742047E+03 -0.188573760183E+03
 -0.188573776938E+03 -0.188573792301E+03 -0.188573806260E+03 -0.188573818799E+03 -0.188573829896E+03
 -0.188573839528E+03 -0.188573847669E+03 -0.188573854285E+03 -0.188573859341E+03 -0.188573862798E+03
 -0.188573864609E+03 -0.188573864727E+03 -0.188573863095E+03 -0.188573859653E+03 -0.188573854336E+03
 -0.188573847071E+03 -0.188573837779E+03 -0.188573826377E+03 -0.188573812771E+03 -0.188573796861E+03
 -0.188573778539E+03 -0.188573757689E+03 -0.188573734185E+03 -0.188573707892E+03 -0.188573678665E+03
 -0.188573646346E+03 -0.188573610769E+03 -0.188573571754E+03 -0.188573529107E+03 -0.188573482621E+03
 -0.188573432075E+03 -0.188573377232E+03 -0.188573317838E+03 -0.188573253621E+03 -0.188573184291E+03
 -0.188573109537E+03 -0.188573029028E+03 -0.188572942407E+03 -0.188572849298E+03 -0.188572749294E+03
 -0.188572641963E+03 -0.188572526844E+03 -0.188572403445E+03 -0.188572271237E+03 -0.188572129662E+03
 -0.188571978118E+03 -0.188571815967E+03 -0.188571642525E+03 -0.188571457066E+03 -0.188571258812E+03
 -0.188571046934E+03 -0.188570820549E+03 -0.188570578714E+03 -0.188570320423E+03 -0.188570044604E+03
 -0.188569750112E+03 -0.188569435727E+03 -0.188569100149E+03 -0.188568741990E+03 -0.188568359770E+03
 -0.188567951913E+03 -0.188567516734E+03 -0.188567052441E+03 -0.188566557121E+03 -0.188566028734E+03
 -0.188565465106E+03 -0.188564863917E+03 -0.188564222697E+03 -0.188563538809E+03 -0.188562809443E+03
 -0.188562031603E+03 -0.188561202095E+03 -0.188560317514E+03 -0.188559374228E+03 -0.188558368366E+03
 -0.188557295803E+03 -0.188556152138E+03 -0.188554932682E+03 -0.188553632433E+03 -0.188552246062E+03
 -0.188550767885E+03 -0.188549191844E+03 -0.188547511481E+03 -0.188545719911E+03 -0.188543809793E+03
 -0.188541773304E+03 -0.188539602102E+03 -0.188537287296E+03 -0.188534819406E+03 -0.188532188330E+03
 -0.188529383295E+03 -0.188526392820E+03 -0.188523204666E+03 -0.188519805785E+03 -0.188516182272E+03
 -0.188512319301E+03 -0.188508201072E+03 -0.188503810740E+03 -0.188499130353E+03 -0.188494140774E+03
 -0.188488821606E+03 -0.188483151109E+03 -0.188477106109E+03 -0.188470661910E+03 -0.188463792188E+03
 -0.188456468887E+03 -0.188448662107E+03 -0.188440339981E+03 -0.188431468547E+03 -0.188422011611E+03
 -0.188411930603E+03 -0.188401184420E+03 -0.188389729259E+03 -0.188377518447E+03 -0.188364502249E+03
 -0.188350627670E+03 -0.188335838245E+03 -0.188320073812E+03 -0.188303270275E+03 -0.188285359344E+03
 -0.188266268271E+03 -0.188245919558E+03 -0.188224230651E+03 -0.188201113616E+03 -0.188176474793E+03
 -0.188150214430E+03 -0.188122226290E+03 -0.188092397241E+03 -0.188060606814E+03 -0.188026726738E+03
 -0.187990620444E+03 -0.187952142541E+03 -0.187911138260E+03 -0.187867442862E+03 -0.187820881016E+03
 -0.187771266134E+03 -0.187718399671E+03 -0.187662070383E+03 -0.187602053541E+03 -0.187538110100E+03
 -0.187469985821E+03 -0.187397410344E+03 -0.187320096206E+03 -0.187237737804E+03 -0.187150010309E+03
 -0.187056568506E+03 -0.186957045584E+03 -0.186851051857E+03 -0.186738173409E+03 -0.186617970684E+03
 -0.186489976987E+03 -0.186353696916E+03 -0.186208604712E+03 -0.186054142529E+03 -0.185889718610E+03
 -0.185714705381E+03 -0.185528437449E+03 -0.185330209504E+03 -0.185119274118E+03 -0.184894839448E+03
 -0.184656066822E+03 -0.184402068222E+03 -0.184131903648E+03 -0.183844578372E+03 -0.183539040062E+03
 -0.183214175791E+03 -0.182868808920E+03 -0.182501695860E+03 -0.182111522708E+03 -0.181696901768E+03
 -0.181256367961E+03 -0.180788375137E+03 -0.180291292300E+03 -0.179763399779E+03 -0.179202885368E+03
 -0.178607840482E+03 -0.177976256378E+03 -0.177306020515E+03 -0.176594913138E+03 -0.175840604186E+03
 -0.175040650666E+03 -0.174192494630E+03 -0.173293461960E+03 -0.172340762173E+03 -0.171331489507E+03
 -0.170262625616E+03 -0.169131044241E+03 -0.167933518339E+03 -0.166666730243E+03 -0.165327285599E+03
 -0.163911732039E+03 -0.162416583812E+03 -0.160838353971E+03 -0.159173596134E+03 -0.157418958291E+03
 -0.155571251559E+03 -0.153627536972E+03 -0.151585233139E+03 -0.149442246453E+03 -0.147197123029E+03
 -0.144849217082E+03 -0.142398863489E+03 -0.139847532505E+03 -0.137197932160E+03 -0.134454009413E+03
 -0.131620786660E+03 -0.128703959776E+03 -0.125709186680E+03 -0.122641030680E+03 -0.119501620621E+03
 -0.116289271329E+03 -0.112997513727E+03 -0.109614962787E+03 -0.106197249396E+03 -0.102886689040E+03
 -0.996408850256E+02 -0.964091168557E+02 -0.933864751105E+02 -0.904538041226E+02 -0.875776351662E+02
 -0.847987659378E+02 -0.821189719415E+02 -0.795262234780E+02 -0.770170479063E+02 -0.745882898539E+02
 -0.722370212799E+02 -0.699605129332E+02 -0.677561961211E+02 -0.656216448046E+02 -0.635545521584E+02
 -0.615527178291E+02 -0.596140330585E+02 -0.577364728882E+02 -0.559180878915E+02 -0.541569992828E+02
 -0.524513894339E+02 -0.507995062670E+02 -0.491996527623E+02 -0.476501875379E+02 -0.461495219587E+02
 -0.446961180581E+02 -0.432884868292E+02 -0.419251864149E+02 -0.406048205225E+02 -0.393260369981E+02
 -0.380875263302E+02 -0.368880202983E+02 -0.357262906332E+02 -0.346011477408E+02 -0.335114394640E+02
 -0.324560499092E+02 -0.314338982987E+02 -0.304439378649E+02
 pspotential valence only
 -0.117442588144E+03 -0.117443029850E+03 -0.117443457644E+03 -0.117443871964E+03 -0.117444273234E+03
 -0.117444661865E+03 -0.117445038254E+03 -0.117445402788E+03 -0.117445755840E+03 -0.117446097770E+03
 -0.117446428930E+03 -0.117446749658E+03 -0.117447060282E+03 -0.117447361121E+03 -0.117447652482E+03
 -0.117447934664E+03 -0.117448207956E+03 -0.117448472637E+03 -0.117448728978E+03 -0.117448977243E+03
 -0.117449217683E+03 -0.117449450547E+03 -0.117449676073E+03 -0.117449894490E+03 -0.117450106022E+03
 -0.117450310887E+03 -0.117450509294E+03 -0.117450701444E+03 -0.117450887536E+03 -0.117451067759E+03
 -0.117451242298E+03 -0.117451411330E+03 -0.117451575030E+03 -0.117451733564E+03 -0.117451887095E+03
 -0.117452035778E+03 -0.117452179766E+03 -0.117452319207E+03 -0.117452454241E+03 -0.117452585008E+03
 -0.117452711641E+03 -0.117452834268E+03 -0.117452953015E+03 -0.117453068003E+03 -0.117453179348E+03
 -0.117453287165E+03 -0.117453391562E+03 -0.117453492647E+03 -0.117453590521E+03 -0.117453685284E+03
 -0.117453777032E+03 -0.117453865858E+03 -0.117453951852E+03 -0.117454035100E+03 -0.117454115688E+03
 -0.117454193695E+03 -0.117454269201E+03 -0.117454342281E+03 -0.117454413008E+03 -0.117454481454E+03
 -0.117454547686E+03 -0.117454611770E+03 -0.117454673770E+03 -0.117454733748E+03 -0.117454791762E+03
 -0.117454847868E+03 -0.117454902123E+03 -0.117454954579E+03 -0.117455005285E+03 -0.117455054292E+03
 -0.117455101645E+03 -0.117455147390E+03 -0.117455191570E+03 -0.117455234224E+03 -0.117455275394E+03
 -0.117455315115E+03 -0.117455353425E+03 -0.117455390355E+03 -0.117455425940E+03 -0.117455460208E+03
 -0.117455493188E+03 -0.117455524908E+03 -0.117455555391E+03 -0.117455584662E+03 -0.117455612742E+03
 -0.117455639651E+03 -0.117455665406E+03 -0.117455690024E+03 -0.117455713519E+03 -0.117455735903E+03
 -0.117455757186E+03 -0.117455777378E+03 -0.117455796485E+03 -0.117455814511E+03 -0.117455831459E+03
 -0.117455847329E+03 -0.117455862119E+03 -0.117455875824E+03 -0.117455888438E+03 -0.117455899951E+03
 -0.117455910352E+03 -0.117455919627E+03 -0.117455927757E+03 -0.117455934723E+03 -0.117455940501E+03
 -0.117455945065E+03 -0.117455948384E+03 -0.117455950426E+03 -0.117455951152E+03 -0.117455950522E+03
 -0.117455948490E+03 -0.117455945007E+03 -0.117455940017E+03 -0.117455933462E+03 -0.117455925276E+03
 -0.117455915391E+03 -0.117455903730E+03 -0.117455890210E+03 -0.117455874745E+03 -0.117455857237E+03
 -0.117455837584E+03 -0.117455815676E+03 -0.117455791394E+03 -0.117455764609E+03 -0.117455735185E+03
 -0.117455702975E+03 -0.117455667821E+03 -0.117455629554E+03 -0.117455587993E+03 -0.117455542945E+03
 -0.117455494202E+03 -0.117455441543E+03 -0.117455384732E+03 -0.117455323514E+03 -0.117455257619E+03
 -0.117455186758E+03 -0.117455110622E+03 -0.117455028881E+03 -0.117454941183E+03 -0.117454847150E+03
 -0.117454746383E+03 -0.117454638452E+03 -0.117454522899E+03 -0.117454399236E+03 -0.117454266943E+03
 -0.117454125463E+03 -0.117453974203E+03 -0.117453812531E+03 -0.117453639772E+03 -0.117453455205E+03
 -0.117453258062E+03 -0.117453047526E+03 -0.117452822721E+03 -0.117452582717E+03 -0.117452326520E+03
 -0.117452053071E+03 -0.117451761240E+03 -0.117451449822E+03 -0.117451117533E+03 -0.117450763002E+03
 -0.117450384771E+03 -0.117449981280E+03 -0.117449550871E+03 -0.117449091773E+03 -0.117448602098E+03
 -0.117448079836E+03 -0.117447522839E+03 -0.117446928822E+03 -0.117446295346E+03 -0.117445619812E+03
 -0.117444899448E+03 -0.117444131301E+03 -0.117443312221E+03 -0.117442438851E+03 -0.117441507612E+03
 -0.117440514689E+03 -0.117439456015E+03 -0.117438327255E+03 -0.117437123787E+03 -0.117435840686E+03
 -0.117434472701E+03 -0.117433014234E+03 -0.117431459321E+03 -0.117429801601E+03 -0.117428034298E+03
 -0.117426150187E+03 -0.117424141568E+03 -0.117422000235E+03 -0.117419717441E+03 -0.117417283864E+03
 -0.117414689570E+03 -0.117411923971E+03 -0.117408975783E+03 -0.117405832982E+03 -0.117402482753E+03
 -0.117398911443E+03 -0.117395104501E+03 -0.117391046423E+03 -0.117386720690E+03 -0.117382109698E+03
 -0.117377194696E+03 -0.117371955704E+03 -0.117366371437E+03 -0.117360419219E+03 -0.117354074896E+03
 -0.117347312738E+03 -0.117340105340E+03 -0.117332423515E+03 -0.117324236175E+03 -0.117315510217E+03
 -0.117306210389E+03 -0.117296299155E+03 -0.117285736551E+03 -0.117274480031E+03 -0.117262484303E+03
 -0.117249701159E+03 -0.117236079288E+03 -0.117221564088E+03 -0.117206097453E+03 -0.117189617566E+03
 -0.117172058660E+03 -0.117153350780E+03 -0.117133419526E+03 -0.117112185782E+03 -0.117089565428E+03
 -0.117065469043E+03 -0.117039801578E+03 -0.117012462031E+03 -0.116983343084E+03 -0.116952330739E+03
 -0.116919303918E+03 -0.116884134062E+03 -0.116846684689E+03 -0.116806810946E+03 -0.116764359132E+03
 -0.116719166197E+03 -0.116671059222E+03 -0.116619854867E+03 -0.116565358804E+03 -0.116507365113E+03
 -0.116445655659E+03 -0.116379999435E+03 -0.116310151881E+03 -0.116235854169E+03 -0.116156832461E+03
 -0.116072797129E+03 -0.115983441946E+03 -0.115888443239E+03 -0.115787459003E+03 -0.115680127979E+03
 -0.115566068689E+03 -0.115444878421E+03 -0.115316132178E+03 -0.115179381560E+03 -0.115034153609E+03
 -0.114879949582E+03 -0.114716243672E+03 -0.114542481665E+03 -0.114358079520E+03 -0.114162421897E+03
 -0.113954860603E+03 -0.113734712985E+03 -0.113501260252E+03 -0.113253745763E+03 -0.112991373269E+03
 -0.112713305151E+03 -0.112418660687E+03 -0.112106514373E+03 -0.111775894376E+03 -0.111425781174E+03
 -0.111055106476E+03 -0.110662752536E+03 -0.110247551985E+03 -0.109808288349E+03 -0.109343697432E+03
 -0.108852469828E+03 -0.108333254815E+03 -0.107784666032E+03 -0.107205289387E+03 -0.106593693812E+03
 -0.105948445681E+03 -0.105268127955E+03 -0.104551365473E+03 -0.103796858210E+03 -0.103003424758E+03
 -0.102170058699E+03 -0.101296000701E+03 -0.100380828893E+03 -0.994245689076E+02 -0.984278224632E+02
 -0.973919088490E+02 -0.963190067293E+02 -0.952122738888E+02 -0.940759100722E+02 -0.929151136637E+02
 -0.917358684734E+02 -0.905444864858E+02 -0.893468353326E+02 -0.881472145428E+02 -0.869469424926E+02
 -0.857428975828E+02 -0.845264632054E+02 -0.832833050333E+02 -0.819937500367E+02 -0.806322746686E+02
 -0.791645835976E+02 -0.775552109270E+02 -0.760135323459E+02 -0.744336992369E+02 -0.727945591593E+02
 -0.711482431264E+02 -0.695068930166E+02 -0.678678959464E+02 -0.662362977533E+02 -0.646165819091E+02
 -0.630126269290E+02 -0.614276877942E+02 -0.598643851603E+02 -0.583246896744E+02 -0.568099230843E+02
 -0.553207818595E+02 -0.538573990425E+02 -0.524194528498E+02 -0.510063190566E+02 -0.496172583312E+02
 -0.482515875299E+02 -0.469088886679E+02 -0.455891001452E+02 -0.442926063733E+02 -0.430202430411E+02
 -0.417732477753E+02 -0.405531616919E+02 -0.393616937823E+02 -0.382005616014E+02 -0.370713235166E+02
 -0.359752199844E+02 -0.349130428284E+02 -0.338850503493E+02 -0.328909406238E+02 -0.319298858596E+02
 -0.310006195321E+02 -0.301015588218E+02 -0.292309405228E+02
 core charge-density (pseudized)
  0.498202795037E-07  0.531130212473E-07  0.566233881864E-07  0.603657636915E-07  0.643554817645E-07
  0.686088898681E-07  0.731434159081E-07  0.779776396421E-07  0.831313688083E-07  0.886257202857E-07
  0.944832066182E-07  0.100727828258E-06  0.107385171903E-06  0.114482515340E-06  0.122048939206E-06
  0.130115446150E-06  0.138715087859E-06  0.147883100483E-06  0.157657049015E-06  0.168076981208E-06
  0.179185591666E-06  0.191028396781E-06  0.203653921230E-06  0.217113896805E-06  0.231463474370E-06
  0.246761449846E-06  0.263070505112E-06  0.280457464842E-06  0.298993570312E-06  0.318754771301E-06
  0.339822037290E-06  0.362281689225E-06  0.386225753204E-06  0.411752337549E-06  0.438966034793E-06
  0.467978350234E-06  0.498908158817E-06  0.531882192212E-06  0.567035558081E-06  0.604512293670E-06
  0.644465955979E-06  0.687060250951E-06  0.732469704235E-06  0.780880376286E-06  0.832490624723E-06
  0.887511917081E-06  0.946169697273E-06  0.100870430931E-05  0.107537198211E-05  0.114644587932E-05
  0.122221721862E-05  0.130299646490E-05  0.138911460241E-05  0.148092449086E-05  0.157880231128E-05
  0.168314910732E-05  0.179439242852E-05  0.191298808209E-05  0.203942200056E-05  0.217421223280E-05
  0.231791106663E-05  0.247110729181E-05  0.263442861242E-05  0.280854421888E-05  0.299416752979E-05
  0.319205911508E-05  0.340302981232E-05  0.362794404898E-05  0.386772338429E-05  0.412335028517E-05
  0.439587215172E-05  0.468640560873E-05  0.499614108084E-05  0.532634767012E-05  0.567837835591E-05
  0.605367553839E-05  0.645377694854E-05  0.688032194860E-05  0.733505824902E-05  0.781984906929E-05
  0.833668077201E-05  0.888767100153E-05  0.947507736040E-05  0.101013066593E-04  0.107689247783E-04
  0.114806671797E-04  0.122394501157E-04  0.130483825770E-04  0.139107790307E-04  0.148301730000E-04
  0.158103315418E-04  0.168552706805E-04  0.179692718621E-04  0.191568994956E-04  0.204230196535E-04
  0.217728200084E-04  0.232118310868E-04  0.247459489275E-04  0.263814592371E-04  0.281250631426E-04
  0.299839046448E-04  0.319655998858E-04  0.340782683519E-04  0.363305661362E-04  0.387317214011E-04
  0.412915721828E-04  0.440206066944E-04  0.469300062919E-04  0.500316912788E-04  0.533383697376E-04
  0.568635895874E-04  0.606217940810E-04  0.646283809690E-04  0.688997655717E-04  0.734534480187E-04
  0.783080849308E-04  0.834835658362E-04  0.890010946360E-04  0.948832764500E-04  0.101154210200E-03
  0.107839587308E-03  0.114966796913E-03  0.122565038038E-03  0.130665439165E-03  0.139301185706E-03
  0.148507655891E-03  0.158322565631E-03  0.168786122949E-03  0.179941192599E-03  0.191833471562E-03
  0.204511676123E-03  0.218027741299E-03  0.232437033432E-03  0.247798576807E-03  0.264175295233E-03
  0.281634269565E-03  0.300247012209E-03  0.320089759750E-03  0.341243784872E-03  0.363795728859E-03
  0.387837956022E-03  0.413468931496E-03  0.440793623946E-03  0.469923934815E-03  0.500979155870E-03
  0.534086456892E-03  0.569381405498E-03  0.607008521198E-03  0.647121865948E-03  0.689885673575E-03
  0.735475020631E-03  0.784076541396E-03  0.835889189911E-03  0.891125052125E-03  0.950010211434E-03
  0.101278567110E-02  0.107970833727E-02  0.115105206652E-02  0.122710878221E-02  0.130818966402E-02
  0.139462641553E-02  0.148677261486E-02  0.158500515377E-02  0.168972577102E-02  0.180136268596E-02
  0.192037233900E-02  0.204724124578E-02  0.218248797227E-02  0.232666523889E-02  0.248036216152E-02
  0.264420663862E-02  0.281886789348E-02  0.300505918164E-02  0.320354067408E-02  0.341512252721E-02
  0.364066815159E-02  0.388109769190E-02  0.413739173157E-02  0.441059523602E-02  0.470182174959E-02
  0.501225786187E-02  0.534316796025E-02  0.569589928631E-02  0.607188731474E-02  0.647266147452E-02
  0.689985123331E-02  0.735519256675E-02  0.784053483606E-02  0.835784809811E-02  0.890923087366E-02
  0.949691840053E-02  0.101232914001E-01  0.107908853863E-01  0.115024005487E-01  0.122607122408E-01
  0.130688821088E-01  0.139301698937E-01  0.148480459459E-01  0.158262044861E-01  0.168685776560E-01
  0.179793503942E-01  0.191629761817E-01  0.204241936968E-01  0.217680444236E-01  0.231998912552E-01
  0.247254381368E-01  0.263507507902E-01  0.280822785627E-01  0.299268774425E-01  0.318918342786E-01
  0.339848922450E-01  0.362142775805E-01  0.385887276377E-01  0.411175202637E-01  0.438105045322E-01
  0.466781328381E-01  0.497314943556E-01  0.529823498488E-01  0.564431678130E-01  0.601271619044E-01
  0.640483295999E-01  0.682214920052E-01  0.726623347031E-01  0.773874495036E-01  0.824143769209E-01
  0.877616491641E-01  0.934488333778E-01  0.994965748181E-01  0.105926639585E+00  0.112761956463E+00
  0.120026657341E+00  0.127746115589E+00  0.135946981671E+00  0.144657215148E+00  0.153906112100E+00
  0.163724326847E+00  0.174143886671E+00  0.185198198079E+00  0.196922042908E+00  0.209351562372E+00
  0.222524226869E+00  0.236478789110E+00  0.251255217801E+00  0.266894608775E+00  0.283439070115E+00
  0.300931577386E+00  0.319415794695E+00  0.338935856795E+00  0.359536107020E+00  0.381260785276E+00
  0.404153659814E+00  0.428257595981E+00  0.453614054576E+00  0.480262511962E+00  0.508239793553E+00
  0.537579311907E+00  0.568310200257E+00  0.600456332156E+00  0.634035217785E+00  0.669056767703E+00
  0.705521915217E+00  0.743421089415E+00  0.782732532159E+00  0.823420454186E+00  0.865433028033E+00
  0.908700218861E+00  0.953131458672E+00  0.998613174976E+00  0.104500619196E+01  0.109214303082E+01
  0.113982514623E+01  0.118782014859E+01  0.123585907638E+01  0.128363380006E+01  0.133079465924E+01
  0.137694845694E+01  0.142165696038E+01  0.146443608509E+01  0.150475596904E+01  0.154204217375E+01
  0.157567828084E+01  0.160501018065E+01  0.162935237530E+01  0.164799663570E+01  0.166022335849E+01
  0.166531595848E+01  0.166257859865E+01  0.165135749502E+01  0.163106592902E+01  0.160121294404E+01
  0.156143548455E+01  0.151153344313E+01  0.145150670097E+01  0.138159277098E+01  0.130230307265E+01
  0.121445518413E+01  0.111919764008E+01  0.101802299650E+01  0.912764013264E+00  0.805566981501E+00
  0.698835554008E+00  0.595138072179E+00  0.497071519291E+00  0.407076119531E+00  0.327196546837E+00
  0.258789052331E+00  0.202178927071E+00  0.156383371689E+00  0.119762767255E+00  0.907888139231E-01
  0.681110042566E-01  0.505550018979E-01  0.371152734355E-01  0.269435608565E-01  0.193346205491E-01
  0.137104531270E-01  0.960402979535E-02  0.664330202196E-02  0.453607499112E-02  0.305613984346E-02
  0.203090034422E-02  0.133059848632E-02  0.859140878597E-03  0.546451988035E-03  0.342228734680E-03
  0.210940100593E-03  0.127901467221E-03  0.762525268052E-04  0.446761705270E-04  0.257105915338E-04
  0.145252504703E-04  0.805118978866E-05  0.437580860115E-05  0.233046287136E-05  0.121540777630E-05
  0.620289892156E-06  0.309559522412E-06  0.150953073460E-06  0.718700844660E-07  0.333819925434E-07
  0.151138120595E-07  0.666444653864E-08  0.285959404366E-08
 pseudo wavefunction
  0.156276222864E-11  0.172022468717E-11  0.189355291548E-11  0.208434553365E-11  0.229436223725E-11
  0.252554002707E-11  0.278001107432E-11  0.306012238578E-11  0.336845745038E-11  0.370786006703E-11
  0.408146057310E-11  0.449270471583E-11  0.494538543270E-11  0.544367783400E-11  0.599217771022E-11
  0.659594391934E-11  0.726054504514E-11  0.799211075662E-11  0.879738834247E-11  0.968380494182E-11
  0.106595360453E-10  0.117335808983E-10  0.129158455017E-10  0.142172339755E-10  0.156497491286E-10
  0.172266031617E-10  0.189623395242E-10  0.208729670496E-10  0.229761076063E-10  0.252911586255E-10
  0.278394720051E-10  0.306445510397E-10  0.337322671939E-10  0.371310987159E-10  0.408723932953E-10
  0.449906571847E-10  0.495238734538E-10  0.545138523099E-10  0.600066167165E-10  0.660528268668E-10
  0.727082474261E-10  0.800342618532E-10  0.880984385452E-10  0.969751540251E-10  0.106746278922E-09
  0.117501933069E-09  0.129341316687E-09  0.142373625313E-09  0.156719056919E-09  0.172509920504E-09
  0.189891856395E-09  0.209025179490E-09  0.230086357857E-09  0.253269640310E-09  0.278788847978E-09
  0.306879346391E-09  0.337800216271E-09  0.371836643048E-09  0.409302547143E-09  0.450543479275E-09
  0.495939807495E-09  0.545910225339E-09  0.600915613465E-09  0.661463290375E-09  0.728111691441E-09
  0.801475519382E-09  0.882231413695E-09  0.971124191327E-09  0.106897371616E-08  0.117668246063E-08
  0.129524382930E-08  0.142575132101E-08  0.156940861430E-08  0.172754066893E-08  0.190160594603E-08
  0.209320985954E-08  0.230411958291E-08  0.253628034781E-08  0.279183338500E-08  0.307313567290E-08
  0.338278167597E-08  0.372362727349E-08  0.409881609923E-08  0.451180853515E-08  0.496641362641E-08
  0.546682421202E-08  0.601765559526E-08  0.662398811035E-08  0.729141397809E-08  0.802608888253E-08
  0.883478874432E-08  0.972497221447E-08  0.107048494647E-07  0.117834579089E-07  0.129707455542E-07
  0.142776627499E-07  0.157162631809E-07  0.172998150369E-07  0.190429233822E-07  0.209616648557E-07
  0.230737359416E-07  0.253986161804E-07  0.279577478229E-07  0.307747335866E-07  0.338755543359E-07
  0.372888086951E-07  0.410459768027E-07  0.451817106411E-07  0.497341536165E-07  0.547452923383E-07
  0.602613438412E-07  0.663331818200E-07  0.730168058089E-07  0.803738576312E-07  0.884721898803E-07
  0.973864916770E-07  0.107198977470E-06  0.118000145234E-06  0.129889611049E-06  0.142977027774E-06
  0.157383096255E-06  0.173240678430E-06  0.190696022550E-06  0.209910111855E-06  0.231060149106E-06
  0.254341190674E-06  0.279967945254E-06  0.308176753771E-06  0.339227768746E-06  0.373407353202E-06
  0.411030721219E-06  0.452444844496E-06  0.498031651676E-06  0.548211549962E-06  0.603447301441E-06
  0.664248289868E-06  0.731175217214E-06  0.804845273257E-06  0.885937825854E-06  0.975200684319E-06
  0.107345699361E-05  0.118161282282E-05  0.130066551793E-05  0.143171289569E-05  0.157596336330E-05
  0.173474705721E-05  0.190952810339E-05  0.210191811218E-05  0.231369103178E-05  0.254679949721E-05
  0.280339282516E-05  0.308583682034E-05  0.339673557558E-05  0.373895546624E-05  0.411565155958E-05
  0.453029668207E-05  0.498671341175E-05  0.548910928990E-05  0.604211557555E-05  0.665082989895E-05
  0.732086320585E-05  0.805839142366E-05  0.887021232403E-05  0.976380810350E-05  0.107474142567E-04
  0.118300953738E-04  0.130218285568E-04  0.143335952201E-04  0.157774821155E-04  0.173667925073E-04
  0.191161685151E-04  0.210417257431E-04  0.231612014282E-04  0.254941174591E-04  0.280619597565E-04
  0.308883756512E-04  0.339993910603E-04  0.374236494412E-04  0.411926746984E-04  0.453411604376E-04
  0.499072881932E-04  0.549330775232E-04  0.604647711447E-04  0.665532586021E-04  0.732545423020E-04
  0.806302501293E-04  0.887481992713E-04  0.976830163338E-04  0.107516819331E-03  0.118339967679E-03
  0.130251886920E-03  0.143361975562E-03  0.157790602142E-03  0.173670201400E-03  0.191146479312E-03
  0.210379737691E-03  0.231546330069E-03  0.254840261715E-03  0.280474947870E-03  0.308685145628E-03
  0.339729076341E-03  0.373890757050E-03  0.411482561144E-03  0.452848030401E-03  0.498364962553E-03
  0.548448800831E-03  0.603556354320E-03  0.664189880616E-03  0.730901565142E-03  0.804298434538E-03
  0.885047744924E-03  0.973882889385E-03  0.107160987295E-02  0.117911440748E-02  0.129736968335E-02
  0.142744487960E-02  0.157051447932E-02  0.172786846254E-02  0.190092345444E-02  0.209123491319E-02
  0.230051044751E-02  0.253062436154E-02  0.278363353076E-02  0.306179472051E-02  0.336758346583E-02
  0.370371463875E-02  0.407316483690E-02  0.447919673450E-02  0.492538554420E-02  0.541564774485E-02
  0.595427223643E-02  0.654595408870E-02  0.719583105383E-02  0.790952301591E-02  0.869317455018E-02
  0.955350076248E-02  0.104978365734E-01  0.115341896023E-01  0.126712967895E-01  0.139186848769E-01
  0.152867348349E-01  0.167867502885E-01  0.184310299472E-01  0.202329439801E-01  0.222070142062E-01
  0.243689978733E-01  0.267359746876E-01  0.293264366214E-01  0.321603798591E-01  0.352593980511E-01
  0.386467758144E-01  0.423475811493E-01  0.463887551265E-01  0.507991968355E-01  0.556098411631E-01
  0.608537264901E-01  0.665660488431E-01  0.727841984203E-01  0.795477737114E-01  0.868985676571E-01
  0.948805194381E-01  0.103539624550E+00  0.112923794812E+00  0.123082658892E+00  0.134067292806E+00
  0.145929868718E+00  0.158723209233E+00  0.172500233314E+00  0.187313278987E+00  0.203213287268E+00
  0.220248831289E+00  0.238464974572E+00  0.257901942981E+00  0.278593596215E+00  0.300565687015E+00
  0.323833899898E+00  0.348401666309E+00  0.374257760165E+00  0.401373686994E+00  0.429700891765E+00
  0.459167825384E+00  0.489676927995E+00  0.521101609004E+00  0.553283329180E+00  0.586028919296E+00
  0.619108302012E+00  0.652252818448E+00  0.685154396507E+00  0.717465832571E+00  0.748802488457E+00
  0.778745727303E+00  0.806848419934E+00  0.832642840027E+00  0.855651223795E+00  0.875399187836E+00
  0.891432066339E+00  0.903334034622E+00  0.910749619269E+00  0.913406847905E+00  0.911140860737E+00
  0.903916296859E+00  0.891846199261E+00  0.875204589870E+00  0.854429310232E+00  0.830111294836E+00
  0.802966267425E+00  0.773785087051E+00  0.743359814592E+00  0.712384237220E+00  0.681330290334E+00
  0.650338215442E+00  0.619464810974E+00  0.588819892354E+00  0.558506452225E+00  0.528619365307E+00
  0.499245900321E+00  0.470466185769E+00  0.442353597323E+00  0.414975050079E+00  0.388391171355E+00
  0.362656344717E+00  0.337818626529E+00  0.313919552088E+00  0.290993871202E+00  0.269069290979E+00
  0.248166149935E+00  0.228297441432E+00  0.209468765418E+00  0.191678594788E+00  0.174918718984E+00
  0.159174868391E+00  0.144427478304E+00  0.130652536883E+00  0.117822454681E+00  0.105906894166E+00
  0.948735055439E-01  0.846885293494E-01  0.753172450707E-01  0.667242661677E-01  0.588737017911E-01
  0.517292208967E-01  0.452540625439E-01  0.394110360325E-01
 ae wavefunction
  0.337287981031E-07  0.367483340316E-07  0.400229190968E-07  0.435753518806E-07  0.474303781100E-07
  0.516148652098E-07  0.561579919860E-07  0.610914547965E-07  0.664496916967E-07  0.722701261823E-07
  0.785934322891E-07  0.854638229734E-07  0.929293638628E-07  0.101042314660E-06  0.109859500678E-06
  0.119442717217E-06  0.129859169734E-06  0.141181953013E-06  0.153490572849E-06  0.166871514060E-06
  0.181418859001E-06  0.197234961110E-06  0.214431178453E-06  0.233128672662E-06  0.253459279154E-06
  0.275566455073E-06  0.299606311942E-06  0.325748740675E-06  0.354178637315E-06  0.385097238556E-06
  0.418723576989E-06  0.455296066929E-06  0.495074232578E-06  0.538340591485E-06  0.585402707307E-06
  0.636595427259E-06  0.692283320993E-06  0.752863339168E-06  0.818767711677E-06  0.890467107291E-06
  0.968474078459E-06  0.105334681722E-05  0.114569325051E-05  0.124617550566E-05  0.135551478001E-05
  0.147449665106E-05  0.160397686771E-05  0.174488766599E-05  0.189824465742E-05  0.206515434193E-05
  0.224682230239E-05  0.244456214283E-05  0.265980523816E-05  0.289411136925E-05  0.314918032428E-05
  0.342686455410E-05  0.372918297794E-05  0.405833604403E-05  0.441672215948E-05  0.480695561405E-05
  0.523188613379E-05  0.569462021260E-05  0.619854438352E-05  0.674735060578E-05  0.734506395969E-05
  0.799607285871E-05  0.870516200672E-05  0.947754834913E-05  0.103189202884E-04  0.112354804589E-04
  0.122339923826E-04  0.133218313542E-04  0.145070399381E-04  0.157983884891E-04  0.172054411498E-04
  0.187386278131E-04  0.204093225848E-04  0.222299293237E-04  0.242139748921E-04  0.263762107983E-04
  0.287327239776E-04  0.313010575173E-04  0.341003422038E-04  0.371514398418E-04  0.404770993791E-04
  0.441021269541E-04  0.480535710803E-04  0.523609242805E-04  0.570563425940E-04  0.621748844960E-04
  0.677547708964E-04  0.738376680169E-04  0.804689950950E-04  0.876982590148E-04  0.955794181355E-04
  0.104171277763E-03  0.113537919902E-03  0.123749170132E-03  0.134881104666E-03  0.147016600871E-03
  0.160245934800E-03  0.174667429513E-03  0.190388158273E-03  0.207524706958E-03  0.226204000374E-03
  0.246564197446E-03  0.268755660625E-03  0.292942005191E-03  0.319301234501E-03  0.348026967634E-03
  0.379329766256E-03  0.413438567972E-03  0.450602233817E-03  0.491091218019E-03  0.535199368550E-03
  0.583245867475E-03  0.635577320519E-03  0.692570005722E-03  0.754632291477E-03  0.822207234666E-03
  0.895775369999E-03  0.975857701993E-03  0.106301891140E-02  0.115787078808E-02  0.126107590265E-02
  0.137335152915E-02  0.149547383122E-02  0.162828232407E-02  0.177268462433E-02  0.192966149946E-02
  0.210027222793E-02  0.228566028052E-02  0.248705933213E-02  0.270579961214E-02  0.294331459988E-02
  0.320114806965E-02  0.348096148750E-02  0.378454175908E-02  0.411380932462E-02  0.447082659311E-02
  0.485780670345E-02  0.527712259496E-02  0.573131636366E-02  0.622310887434E-02  0.675540959021E-02
  0.733132657373E-02  0.795417660240E-02  0.862749533232E-02  0.935504743051E-02  0.101408365836E-01
  0.109891152761E-01  0.119043942146E-01  0.128914512588E-01  0.139553396981E-01  0.151013956965E-01
  0.163352447013E-01  0.176628065927E-01  0.190902993211E-01  0.206242407554E-01  0.222714484323E-01
  0.240390368668E-01  0.259344120460E-01  0.279652626901E-01  0.301395478261E-01  0.324654801718E-01
  0.349515047958E-01  0.376062724778E-01  0.404386071767E-01  0.434574669967E-01  0.466718980455E-01
  0.500909805843E-01  0.537237668822E-01  0.575792101962E-01  0.616660843032E-01  0.659928930191E-01
  0.705677691471E-01  0.753983623140E-01  0.804917151822E-01  0.858541275709E-01  0.914910080849E-01
  0.974067129527E-01  0.103604371897E+00  0.110085701024E+00  0.116850802921E+00  0.123897954339E+00
  0.131223382154E+00  0.138821028516E+00  0.146682306483E+00  0.154795847758E+00  0.163147244546E+00
  0.171718788000E+00  0.180489206126E+00  0.189433404557E+00  0.198522214056E+00  0.207722149144E+00
  0.216995182732E+00  0.226298542178E+00  0.235584532625E+00  0.244800393947E+00  0.253888198013E+00
  0.262784793233E+00  0.271421803508E+00  0.279725688585E+00  0.287617872425E+00  0.295014945524E+00
  0.301828946302E+00  0.307967726071E+00  0.313335402289E+00  0.317832906183E+00  0.321358633381E+00
  0.323809209111E+00  0.325080381323E+00  0.325068053883E+00  0.323669466226E+00  0.320784514862E+00
  0.316317200631E+00  0.310177178499E+00  0.302281388733E+00  0.292555752851E+00  0.280936919444E+00
  0.267374041552E+00  0.251830562214E+00  0.234285980889E+00  0.214737571260E+00  0.193202019439E+00
  0.169716949653E+00  0.144342302017E+00  0.117161524278E+00  0.882825371057E-01  0.578384309589E-01
  0.259878525489E-01 -0.708495951992E-02 -0.411705268373E-01 -0.760349027649E-01 -0.111420888506E+00
 -0.147049709672E+00 -0.182623155165E+00 -0.217826154862E+00 -0.252329731044E+00 -0.285794208285E+00
 -0.317872542903E+00 -0.348213695621E+00 -0.376466162548E+00 -0.402282024678E+00 -0.425321873220E+00
 -0.445260457064E+00 -0.461792323011E+00 -0.474636835313E+00 -0.483542509473E+00 -0.488290862148E+00
 -0.488699889756E+00 -0.484627128644E+00 -0.475972164699E+00 -0.462678466883E+00 -0.444734479972E+00
 -0.422173978900E+00 -0.395075731681E+00 -0.363562536967E+00 -0.327799704488E+00 -0.287993041006E+00
 -0.244386396224E+00 -0.197258815349E+00 -0.146921338909E+00 -0.937134874359E-01 -0.379994689187E-01
  0.198358493821E-01  0.793911568848E-01  0.140253047571E+00  0.202000434111E+00  0.264208949694E+00
  0.326455243286E+00  0.388321059175E+00  0.449396993858E+00  0.509285862993E+00  0.567605699841E+00
  0.623992511330E+00  0.678102995825E+00  0.729617362597E+00  0.778242290512E+00  0.823713866819E+00
  0.865800300962E+00  0.904304204604E+00  0.939064298413E+00  0.969956478778E+00  0.996894224551E+00
  0.101982835230E+01  0.103874615056E+01  0.105366994227E+01  0.106465513158E+01  0.107178781491E+01
  0.107518204037E+01  0.107497678431E+01  0.107133274991E+01  0.106442904882E+01  0.105445985346E+01
  0.104163107651E+01  0.102615715027E+01  0.100825794854E+01  0.988155909475E+00  0.966073389342E+00
  0.942230284241E+00  0.916841942442E+00  0.890117384837E+00  0.862257842727E+00  0.833455614762E+00
  0.803893236181E+00  0.773742942531E+00  0.743166404276E+00  0.712314694930E+00  0.681328456526E+00
  0.650338215442E+00  0.619464810974E+00  0.588819892354E+00  0.558506452225E+00  0.528619365307E+00
  0.499245900321E+00  0.470466185769E+00  0.442353597323E+00  0.414975050079E+00  0.388391171355E+00
  0.362656344717E+00  0.337818626529E+00  0.313919552088E+00  0.290993871202E+00  0.269069290979E+00
  0.248166149935E+00  0.228297441432E+00  0.209468765418E+00  0.191678594788E+00  0.174918718984E+00
  0.159174868391E+00  0.144427478304E+00  0.130652536883E+00  0.117822454681E+00  0.105906894166E+00
  0.948735055439E-01  0.846885293494E-01  0.753172450707E-01  0.667242661677E-01  0.588737017911E-01
  0.517292208967E-01  0.452540625439E-01  0.394110360325E-01
 pseudo wavefunction
  0.152043982158E-11  0.167363791403E-11  0.184227210273E-11  0.202789771427E-11  0.223222678849E-11
  0.245714386873E-11  0.270472338318E-11  0.297724877745E-11  0.327723357498E-11  0.360744455948E-11
  0.397092729318E-11  0.437103420629E-11  0.481145551674E-11  0.529625326535E-11  0.582989878036E-11
  0.641731391679E-11  0.706391645119E-11  0.777567005013E-11  0.855913927362E-11  0.942155012054E-11
  0.103708566746E-10  0.114158144654E-10  0.125660612216E-10  0.138322057602E-10  0.152259258324E-10
  0.167600758288E-10  0.184488053362E-10  0.203076896401E-10  0.223538733773E-10  0.246062286617E-10
  0.270855291435E-10  0.298146416062E-10  0.328187368686E-10  0.361255219371E-10  0.397654955496E-10
  0.437722294678E-10  0.481826781119E-10  0.530375193940E-10  0.583815298934E-10  0.642639978347E-10
  0.707391776764E-10  0.778667905037E-10  0.857125748408E-10  0.943488929615E-10  0.103855398292E-09
  0.114319770061E-09  0.125838521969E-09  0.138517892343E-09  0.152474823980E-09  0.167838042718E-09
  0.184749244681E-09  0.203364403158E-09  0.223855207146E-09  0.246410644857E-09  0.271238746764E-09
  0.298568504282E-09  0.328651981766E-09  0.361766641322E-09  0.398217901849E-09  0.438341955944E-09
  0.482508870618E-09  0.531126000450E-09  0.584641744636E-09  0.643549682603E-09  0.708393126312E-09
  0.779770131256E-09  0.858339012347E-09  0.944824415590E-09  0.104002400152E-08  0.114481580206E-08
  0.126016631864E-08  0.138713943626E-08  0.152690623575E-08  0.168075579470E-08  0.185010707659E-08
  0.203652201800E-08  0.224171993431E-08  0.246759337699E-08  0.271622558863E-08  0.298990971670E-08
  0.329116996320E-08  0.362278486539E-08  0.398781292220E-08  0.438962080271E-08  0.483191439681E-08
  0.531877299458E-08  0.585468690934E-08  0.644459889162E-08  0.709394971588E-08  0.780872836040E-08
  0.859552724318E-08  0.946160302322E-08  0.104149435280E-07  0.114643414244E-07  0.126194753124E-07
  0.138909989891E-07  0.152906397080E-07  0.168313063366E-07  0.185272084130E-07  0.203939871980E-07
  0.224488599302E-07  0.247107786173E-07  0.272006048256E-07  0.299413020798E-07  0.329581476493E-07
  0.362789656721E-07  0.399343837665E-07  0.439581154987E-07  0.483872713083E-07  0.532627007619E-07
  0.586293692889E-07  0.645367728744E-07  0.710393945330E-07  0.781972067730E-07  0.860762246845E-07
  0.947491147509E-07  0.104295864998E-06  0.114804522658E-06  0.126372006158E-06  0.139104998906E-06
  0.153120933129E-06  0.168549072825E-06  0.185531705821E-06  0.204225455924E-06  0.224802727252E-06
  0.247453294088E-06  0.272386050883E-06  0.299830938557E-06  0.330041064859E-06  0.363295038318E-06
  0.399899537315E-06  0.440192137937E-06  0.484544426701E-06  0.533365426816E-06  0.587105369573E-06
  0.646259845614E-06  0.711374374340E-06  0.783049433557E-06  0.861945995715E-06  0.948791621737E-06
  0.104438716859E-05  0.114961417241E-05  0.126544297511E-05  0.139294166946E-05  0.153328594493E-05
  0.168776992495E-05  0.185781809545E-05  0.204499843453E-05  0.225103686400E-05  0.247783315601E-05
  0.272747844098E-05  0.300227447813E-05  0.330475486584E-05  0.363770838697E-05  0.400420470390E-05
  0.440762263966E-05  0.485168130511E-05  0.534047435841E-05  0.587850771163E-05  0.647074103108E-05
  0.712263341247E-05  0.784019365063E-05  0.863003556517E-05  0.949943889015E-05  0.104564162863E-04
  0.115097870909E-04  0.126692584809E-04  0.139455147943E-04  0.153503158277E-04  0.168966050099E-04
  0.185986284427E-04  0.204720658979E-04  0.225341749683E-04  0.248039496907E-04  0.273022950891E-04
  0.300522192329E-04  0.330790445611E-04  0.364106403992E-04  0.400776787873E-04  0.441139159475E-04
  0.485565019500E-04  0.534463213915E-04  0.588283681782E-04  0.647521578101E-04  0.712721809011E-04
  0.784484020366E-04  0.863468084740E-04  0.950400136361E-04  0.104607920832E-03  0.115138453176E-03
  0.126728356249E-03  0.139484080710E-03  0.153522752732E-03  0.168973240933E-03  0.185977329306E-03
  0.204691006554E-03  0.225285883266E-03  0.247950749446E-03  0.272893286124E-03  0.300341946076E-03
  0.330548020114E-03  0.363787906971E-03  0.400365606493E-03  0.440615457708E-03  0.484905145358E-03
  0.533639000664E-03  0.587261624464E-03  0.646261863455E-03  0.711177173063E-03  0.782598403472E-03
  0.861175048642E-03  0.947621001644E-03  0.104272086346E-02  0.114733685648E-02  0.126241639831E-02
  0.138900039625E-02  0.152823232764E-02  0.168136817701E-02  0.184978730609E-02  0.203500433935E-02
  0.223868215344E-02  0.246264606626E-02  0.270889932742E-02  0.297964002004E-02  0.327727949022E-02
  0.360446242877E-02  0.396408873701E-02  0.435933731592E-02  0.479369192554E-02  0.527096926815E-02
  0.579534945535E-02  0.637140902484E-02  0.700415667691E-02  0.769907190374E-02  0.846214668577E-02
  0.929993042755E-02  0.102195783013E-01  0.112289031574E-01  0.123364311490E-01  0.135514611963E-01
  0.148841283943E-01  0.163454714286E-01  0.179475040227E-01  0.197032903841E-01  0.216270245426E-01
  0.237341133930E-01  0.260412631436E-01  0.285665687467E-01  0.313296057335E-01  0.343515236902E-01
  0.376551403992E-01  0.412650354102E-01  0.452076415105E-01  0.495113322161E-01  0.542065030047E-01
  0.593256435545E-01  0.649033977251E-01  0.709766074278E-01  0.775843358624E-01  0.847678648567E-01
  0.925706602208E-01  0.101038298130E+00  0.110218344584E+00  0.120160178938E+00  0.130914751448E+00
  0.142534263624E+00  0.155071759108E+00  0.168580611731E+00  0.183113896438E+00  0.198723628023E+00
  0.215459852118E+00  0.233369572787E+00  0.252495501553E+00  0.272874613847E+00  0.294536501034E+00
  0.317501509477E+00  0.341778662909E+00  0.367363371023E+00  0.394234935957E+00  0.422353879655E+00
  0.451659129323E+00  0.482065115663E+00  0.513458859546E+00  0.545697147527E+00  0.578603924908E+00
  0.611968066802E+00  0.645541721955E+00  0.679039459780E+00  0.712138486139E+00  0.744480224938E+00
  0.775673586684E+00  0.805300256385E+00  0.832922324798E+00  0.858092550780E+00  0.880367468314E+00
  0.899323428702E+00  0.914575484312E+00  0.925798763715E+00  0.932751649128E+00  0.935299640319E+00
  0.933438276461E+00  0.927312902302E+00  0.917232438102E+00  0.903673697328E+00  0.887272274847E+00
  0.868795718825E+00  0.849094757927E+00  0.829028975558E+00  0.809364728239E+00  0.790645529148E+00
  0.773077172093E+00  0.756806963684E+00  0.742068211970E+00  0.729103944729E+00  0.718169348712E+00
  0.709535798719E+00  0.000000000000E+00  0.000000000000E+00  0.000000000000E+00  0.000000000000E+00
  0.000000000000E+00  0.000000000000E+00  0.000000000000E+00  0.000000000000E+00  0.000000000000E+00
  0.000000000000E+00  0.000000000000E+00  0.000000000000E+00  0.000000000000E+00  0.000000000000E+00
  0.000000000000E+00  0.000000000000E+00  0.000000000000E+00  0.000000000000E+00  0.000000000000E+00
  0.000000000000E+00  0.000000000000E+00  0.000000000000E+00  0.000000000000E+00  0.000000000000E+00
  0.000000000000E+00  0.000000000000E+00  0.000000000000E+00
 ae wavefunction
  0.328965015398E-07  0.358415268348E-07  0.390353076344E-07  0.425000799380E-07  0.462599788423E-07
  0.503412087864E-07  0.547722285544E-07  0.595839523588E-07  0.648099684549E-07  0.704867768692E-07
  0.766540479571E-07  0.833549036674E-07  0.906362235514E-07  0.985489777412E-07  0.107148589317E-06
  0.116495328708E-06  0.126654742994E-06  0.137698123259E-06  0.149703013397E-06  0.162753764111E-06
  0.176942136161E-06  0.192367957290E-06  0.209139837672E-06  0.227375949131E-06  0.247204873885E-06
  0.268766529102E-06  0.292213174066E-06  0.317710507427E-06  0.345438862699E-06  0.375594510814E-06
  0.408391079475E-06  0.444061099833E-06  0.482857692019E-06  0.525056402121E-06  0.570957204290E-06
  0.620886682984E-06  0.675200411657E-06  0.734285545730E-06  0.798563649303E-06  0.868493776823E-06
  0.944575832889E-06  0.102735423548E-05  0.111742191018E-05  0.121542464556E-05  0.132206584250E-05
  0.143811169346E-05  0.156439683068E-05  0.170183048614E-05  0.185140320992E-05  0.201419419772E-05
  0.219137928319E-05  0.238423965560E-05  0.259417136894E-05  0.282269571462E-05  0.307147053648E-05
  0.334230257391E-05  0.363716092688E-05  0.395819174491E-05  0.430773425152E-05  0.468833822575E-05
  0.510278307323E-05  0.555409863141E-05  0.604558786659E-05  0.658085163451E-05  0.716381569184E-05
  0.779876016274E-05  0.849035168287E-05  0.924367846338E-05  0.100642885387E-04  0.109582314860E-04
  0.119321039295E-04  0.129930991699E-04  0.141490613121E-04  0.154085442924E-04  0.167808762471E-04
  0.182762297000E-04  0.199056980879E-04  0.216813791907E-04  0.236164660801E-04  0.257253462551E-04
  0.280237096882E-04  0.305286665723E-04  0.332588756213E-04  0.362346838529E-04  0.394782788611E-04
  0.430138546675E-04  0.468677923362E-04  0.510688566327E-04  0.556484101147E-04  0.606406461561E-04
  0.660828425299E-04  0.720156373057E-04  0.784833289604E-04  0.855342027529E-04  0.932208855739E-04
  0.101600731660E-03  0.110736241741E-03  0.120695518399E-03  0.131552760607E-03  0.143388800677E-03
  0.156291687040E-03  0.170357316572E-03  0.185690120440E-03  0.202403807701E-03  0.220622171226E-03
  0.240479960807E-03  0.262123828639E-03  0.285713352736E-03  0.311422144168E-03  0.339439044415E-03
  0.369969419498E-03  0.403236557957E-03  0.439483180172E-03  0.478973066919E-03  0.521992815505E-03
  0.568853732238E-03  0.619893870447E-03  0.675480223650E-03  0.736011083948E-03  0.801918576057E-03
  0.873671377828E-03  0.951777638424E-03  0.103678810564E-02  0.112929947409E-02  0.122995796629E-02
  0.133946315854E-02  0.145857206387E-02  0.158810348392E-02  0.172894264165E-02  0.188204610619E-02
  0.204844702083E-02  0.222926064419E-02  0.242569021376E-02  0.263903313969E-02  0.287068753511E-02
  0.312215908745E-02  0.339506827286E-02  0.369115791298E-02  0.401230107044E-02  0.436050927506E-02
  0.473794106913E-02  0.514691085429E-02  0.558989801733E-02  0.606955630541E-02  0.658872341357E-02
  0.715043073930E-02  0.775791324918E-02  0.841461939235E-02  0.912422098346E-02  0.989062296521E-02
  0.107179729462E-01  0.116106703937E-01  0.125733753453E-01  0.136110164830E-01  0.147287983955E-01
  0.159322078305E-01  0.172270187194E-01  0.186192957269E-01  0.201153960560E-01  0.217219692067E-01
  0.234459543556E-01  0.252945749890E-01  0.272753303840E-01  0.293959834925E-01  0.316645447412E-01
  0.340892512226E-01  0.366785407198E-01  0.394410199836E-01  0.423854266697E-01  0.455205843441E-01
  0.488553499710E-01  0.523985533119E-01  0.561589276685E-01  0.601450314139E-01  0.643651597579E-01
  0.688272462040E-01  0.735387531707E-01  0.785065512755E-01  0.837367868288E-01  0.892347371460E-01
  0.950046533841E-01  0.101049590734E+00  0.107371225955E+00  0.113969662429E+00  0.120843223115E+00
  0.127988232069E+00  0.135398785418E+00  0.143066513061E+00  0.150980332659E+00  0.159126197901E+00
  0.167486843433E+00  0.176041529267E+00  0.184765787981E+00  0.193631178480E+00  0.202605050604E+00
  0.211650325344E+00  0.220725295941E+00  0.229783455589E+00  0.238773357908E+00  0.247638516721E+00
  0.256317351940E+00  0.264743188489E+00  0.272844315100E+00  0.280544109418E+00  0.287761235208E+00
  0.294409916644E+00  0.300400294081E+00  0.305638865895E+00  0.310029022307E+00  0.313471679633E+00
  0.315866026218E+00  0.317110393064E+00  0.317103261031E+00  0.315744410797E+00  0.312936211131E+00
  0.308585029715E+00  0.302602743927E+00  0.294908330918E+00  0.285429520784E+00  0.274104498317E+00
  0.260883635470E+00  0.245731231728E+00  0.228627235790E+00  0.209568919781E+00  0.188572475831E+00
  0.165674502906E+00  0.140933349402E+00  0.114430274368E+00  0.862703879519E-01  0.565833301766E-01
  0.255236471438E-01 -0.672917471330E-02 -0.399710522770E-01 -0.739740582227E-01 -0.108487606663E+00
 -0.143240087525E+00 -0.177940951380E+00 -0.212283221784E+00 -0.245946371619E+00 -0.278599451012E+00
 -0.309904331250E+00 -0.339518990143E+00 -0.367100950884E+00 -0.392311225580E+00 -0.414819112013E+00
 -0.434307694021E+00 -0.450479334346E+00 -0.463060561633E+00 -0.471806287933E+00 -0.476503553541E+00
 -0.476974909023E+00 -0.473081388558E+00 -0.464724945781E+00 -0.451850229704E+00 -0.434445637560E+00
 -0.412543646887E+00 -0.386220472686E+00 -0.355595114105E+00 -0.320827857321E+00 -0.282118295802E+00
 -0.239702921168E+00 -0.193852330354E+00 -0.144868088804E+00 -0.930792865150E-01 -0.388388240119E-01
  0.174805310930E-01  0.754902702161E-01  0.134790398118E+00  0.194973751376E+00  0.255630304492E+00
  0.316351371807E+00  0.376733598864E+00  0.436382638901E+00  0.494916448613E+00  0.551968223531E+00
  0.607189095485E+00  0.660250791002E+00  0.710848387743E+00  0.758703206889E+00  0.803565688058E+00
  0.845218048373E+00  0.883476523363E+00  0.918193054682E+00  0.949256360411E+00  0.976592369021E+00
  0.100016402687E+01  0.101997050877E+01  0.103604588122E+01  0.104845727360E+01  0.105730263628E+01
  0.106270816877E+01  0.106482548571E+01  0.106382862489E+01  0.105991095769E+01  0.105328208923E+01
  0.104416480519E+01  0.103279213843E+01  0.101940459926E+01  0.100424763011E+01  0.987569317034E+00
  0.969618399477E+00  0.950642606167E+00  0.930887342013E+00  0.910594744596E+00  0.890003124269E+00
  0.869346796443E+00  0.848856307381E+00  0.828759053573E+00  0.809280285516E+00  0.790644494017E+00
  0.773077172093E+00  0.756806963684E+00  0.742068211970E+00  0.729103944729E+00  0.718169348712E+00
  0.709535798719E+00  0.000000000000E+00  0.000000000000E+00  0.000000000000E+00  0.000000000000E+00
  0.000000000000E+00  0.000000000000E+00  0.000000000000E+00  0.000000000000E+00  0.000000000000E+00
  0.000000000000E+00  0.000000000000E+00  0.000000000000E+00  0.000000000000E+00  0.000000000000E+00
  0.000000000000E+00  0.000000000000E+00  0.000000000000E+00  0.000000000000E+00  0.000000000000E+00
  0.000000000000E+00  0.000000000000E+00  0.000000000000E+00  0.000000000000E+00  0.000000000000E+00
  0.000000000000E+00  0.000000000000E+00  0.000000000000E+00
 pseudo wavefunction
  0.434663132042E-04  0.448797292822E-04  0.463391061258E-04  0.478459382645E-04  0.494017688262E-04
  0.510081911175E-04  0.526668502554E-04  0.543794448518E-04  0.561477287535E-04  0.579735128379E-04
  0.598586668676E-04  0.618051214054E-04  0.638148697909E-04  0.658899701825E-04  0.680325476646E-04
  0.702447964240E-04  0.725289819973E-04  0.748874435903E-04  0.773225964743E-04  0.798369344592E-04
  0.824330324472E-04  0.851135490702E-04  0.878812294121E-04  0.907389078200E-04  0.936895108072E-04
  0.967360600499E-04  0.998816754815E-04  0.103129578488E-03  0.106483095208E-03  0.109945659936E-03
  0.113520818642E-03  0.117212232603E-03  0.121023682151E-03  0.124959070545E-03  0.129022427970E-03
  0.133217915659E-03  0.137549830162E-03  0.142022607741E-03  0.146640828913E-03  0.151409223144E-03
  0.156332673690E-03  0.161416222598E-03  0.166665075871E-03  0.172084608798E-03  0.177680371461E-03
  0.183458094414E-03  0.189423694558E-03  0.195583281194E-03  0.201943162287E-03  0.208509850918E-03
  0.215290071961E-03  0.222290768964E-03  0.229519111264E-03  0.236982501327E-03  0.244688582333E-03
  0.252645245995E-03  0.260860640650E-03  0.269343179599E-03  0.278101549722E-03  0.287144720378E-03
  0.296481952590E-03  0.306122808526E-03  0.316077161294E-03  0.326355205056E-03  0.336967465461E-03
  0.347924810433E-03  0.359238461293E-03  0.370920004257E-03  0.382981402299E-03  0.395435007403E-03
  0.408293573213E-03  0.421570268096E-03  0.435278688625E-03  0.449432873507E-03  0.464047317958E-03
  0.479136988550E-03  0.494717338541E-03  0.510804323695E-03  0.527414418630E-03  0.544564633688E-03
  0.562272532356E-03  0.580556249254E-03  0.599434508711E-03  0.618926643939E-03  0.639052616833E-03
  0.659833038422E-03  0.681289189972E-03  0.703443044786E-03  0.726317290712E-03  0.749935353374E-03
  0.774321420172E-03  0.799500465054E-03  0.825498274094E-03  0.852341471906E-03  0.880057548917E-03
  0.908674889522E-03  0.938222801159E-03  0.968731544333E-03  0.100023236361E-02  0.103275751963E-02
  0.106634032213E-02  0.110101516411E-02  0.113681755702E-02  0.117378416718E-02  0.121195285331E-02
  0.125136270533E-02  0.129205408442E-02  0.133406866436E-02  0.137744947422E-02  0.142224094246E-02
  0.146848894245E-02  0.151624083951E-02  0.156554553936E-02  0.161645353833E-02  0.166901697507E-02
  0.172328968396E-02  0.177932725034E-02  0.183718706745E-02  0.189692839525E-02  0.195861242120E-02
  0.202230232296E-02  0.208806333317E-02  0.215596280635E-02  0.222607028793E-02  0.229845758558E-02
  0.237319884289E-02  0.245037061536E-02  0.253005194896E-02  0.261232446122E-02  0.269727242494E-02
  0.278498285473E-02  0.287554559623E-02  0.296905341839E-02  0.306560210864E-02  0.316529057132E-02
  0.326822092915E-02  0.337449862821E-02  0.348423254617E-02  0.359753510423E-02  0.371452238263E-02
  0.383531423996E-02  0.396003443642E-02  0.408881076109E-02  0.422177516340E-02  0.435906388892E-02
  0.450081761960E-02  0.464718161863E-02  0.479830588009E-02  0.495434528352E-02  0.511545975361E-02
  0.528181442508E-02  0.545357981316E-02  0.563093198957E-02  0.581405276442E-02  0.600312987410E-02
  0.619835717543E-02  0.639993484625E-02  0.660806959274E-02  0.682297486357E-02  0.704487107132E-02
  0.727398582119E-02  0.751055414749E-02  0.775481875800E-02  0.800703028660E-02  0.826744755441E-02
  0.853633783976E-02  0.881397715736E-02  0.910065054689E-02  0.939665237147E-02  0.970228662637E-02
  0.100178672582E-01  0.103437184954E-01  0.106801751895E-01  0.110275831691E-01  0.113862996052E-01
  0.117566933903E-01  0.121391455301E-01  0.125340495490E-01  0.129418119105E-01  0.133628524524E-01
  0.137976048370E-01  0.142465170184E-01  0.147100517261E-01  0.151886869667E-01  0.156829165437E-01
  0.161932505963E-01  0.167202161591E-01  0.172643577421E-01  0.178262379326E-01  0.184064380206E-01
  0.190055586476E-01  0.196242204816E-01  0.202630649170E-01  0.209227548039E-01  0.216039752055E-01
  0.223074341861E-01  0.230338636321E-01  0.237840201062E-01  0.245586857374E-01  0.253586691488E-01
  0.261848064256E-01  0.270379621240E-01  0.279190303257E-01  0.288289357383E-01  0.297686348465E-01
  0.307391171148E-01  0.317414062474E-01  0.327765615062E-01  0.338456790931E-01  0.349498935982E-01
  0.360903795204E-01  0.372683528636E-01  0.384850728136E-01  0.397418435026E-01  0.410400158644E-01
  0.423809895901E-01  0.437662151878E-01  0.451971961560E-01  0.466754912769E-01  0.482027170404E-01
  0.497805502050E-01  0.514107305086E-01  0.530950635379E-01  0.548354237689E-01  0.566337577907E-01
  0.584920877258E-01  0.604125148625E-01  0.623972235127E-01  0.644484851141E-01  0.665686625933E-01
  0.687602150084E-01  0.710257024936E-01  0.733677915241E-01  0.757892605282E-01  0.782930058679E-01
  0.808820482154E-01  0.835595393523E-01  0.863287694205E-01  0.891931746535E-01  0.921563456206E-01
  0.952220360145E-01  0.983941720158E-01  0.101676862268E+00  0.105074408493E+00  0.108591316787E+00
  0.112232309619E+00  0.116002338569E+00  0.119906597829E+00  0.123950538490E+00  0.128139883641E+00
  0.132480644267E+00  0.136979135980E+00  0.141641996541E+00  0.146476204168E+00  0.151489096574E+00
  0.156688390681E+00  0.162082202897E+00  0.167679069850E+00  0.173487969397E+00  0.179518341699E+00
  0.185780110097E+00  0.192283701433E+00  0.199040065418E+00  0.206060692528E+00  0.213357629806E+00
  0.220943493834E+00  0.228831479973E+00  0.237035366820E+00  0.245569514627E+00  0.254448856203E+00
  0.263688878573E+00  0.273305593386E+00  0.283315493743E+00  0.293735494745E+00  0.304582854684E+00
  0.315875073360E+00  0.327629763513E+00  0.339864490881E+00  0.352596577818E+00  0.365842864859E+00
  0.379619424040E+00  0.393941217182E+00  0.408821691821E+00  0.424272306951E+00  0.440301980351E+00
  0.456916449005E+00  0.474117534046E+00  0.491902301930E+00  0.510262114071E+00  0.529181558321E+00
  0.548637257343E+00  0.568596551407E+00  0.589016056592E+00  0.609840103910E+00  0.630999070826E+00
  0.652407624151E+00  0.673962902566E+00  0.695542678376E+00  0.717003551525E+00  0.738179244635E+00
  0.758879085746E+00  0.778886785406E+00  0.797959636264E+00  0.815828285708E+00  0.832197254061E+00
  0.846746390861E+00  0.859133477279E+00  0.868998190955E+00  0.875967646293E+00  0.879663704013E+00
  0.879741948866E+00  0.876180794612E+00  0.869119945823E+00  0.858725982043E+00  0.845185316299E+00
  0.828702523876E+00  0.809498574074E+00  0.787808909543E+00  0.763881332699E+00  0.737973642663E+00
  0.710350986175E+00  0.681282908470E+00  0.651040123019E+00  0.619891082843E+00  0.588098465885E+00
  0.555915757933E+00  0.523584108221E+00  0.491329642357E+00  0.459361369781E+00  0.427869768945E+00
  0.397026063649E+00  0.366982137587E+00  0.337870977646E+00  0.309807496570E+00  0.282889565863E+00
  0.257199092321E+00  0.232802996160E+00  0.209753993113E+00  0.188091140297E+00  0.167840166488E+00
  0.149013659642E+00  0.131611217877E+00  0.115619679258E+00
 ae wavefunction
 -0.555468895750E-02 -0.570265592593E-02 -0.585448880785E-02 -0.601028457971E-02 -0.617014239213E-02
 -0.633416360303E-02 -0.650245181001E-02 -0.667511288213E-02 -0.685225499079E-02 -0.703398863966E-02
 -0.722042669365E-02 -0.741168440650E-02 -0.760787944718E-02 -0.780913192462E-02 -0.801556441080E-02
 -0.822730196196E-02 -0.844447213767E-02 -0.866720501763E-02 -0.889563321592E-02 -0.912989189249E-02
 -0.937011876158E-02 -0.961645409686E-02 -0.986904073297E-02 -0.101280240631E-01 -0.103935520326E-01
 -0.106657751273E-01 -0.109448463579E-01 -0.112309212382E-01 -0.115241577578E-01 -0.118247163492E-01
 -0.121327598469E-01 -0.124484534409E-01 -0.127719646217E-01 -0.131034631172E-01 -0.134431208210E-01
 -0.137911117109E-01 -0.141476117584E-01 -0.145127988265E-01 -0.148868525561E-01 -0.152699542412E-01
 -0.156622866901E-01 -0.160640340735E-01 -0.164753817573E-01 -0.168965161205E-01 -0.173276243557E-01
 -0.177688942529E-01 -0.182205139634E-01 -0.186826717450E-01 -0.191555556856E-01 -0.196393534041E-01
 -0.201342517283E-01 -0.206404363473E-01 -0.211580914379E-01 -0.216873992624E-01 -0.222285397370E-01
 -0.227816899692E-01 -0.233470237621E-01 -0.239247110834E-01 -0.245149174986E-01 -0.251178035648E-01
 -0.257335241840E-01 -0.263622279141E-01 -0.270040562345E-01 -0.276591427640E-01 -0.283276124302E-01
 -0.290095805860E-01 -0.297051520718E-01 -0.304144202209E-01 -0.311374658048E-01 -0.318743559161E-01
 -0.326251427863E-01 -0.333898625360E-01 -0.341685338526E-01 -0.349611565964E-01 -0.357677103278E-01
 -0.365881527558E-01 -0.374224181037E-01 -0.382704153881E-01 -0.391320266100E-01 -0.400071048536E-01
 -0.408954722902E-01 -0.417969180852E-01 -0.427111962040E-01 -0.436380231155E-01 -0.445770753896E-01
 -0.455279871876E-01 -0.464903476421E-01 -0.474636981257E-01 -0.484475294064E-01 -0.494412786886E-01
 -0.504443265390E-01 -0.514559936975E-01 -0.524755377723E-01 -0.535021498216E-01 -0.545349508217E-01
 -0.555729880253E-01 -0.566152312124E-01 -0.576605688377E-01 -0.587078040804E-01 -0.597556508018E-01
 -0.608027294191E-01 -0.618475627040E-01 -0.628885715167E-01 -0.639240704876E-01 -0.649522636606E-01
 -0.659712401154E-01 -0.669789695846E-01 -0.679732980890E-01 -0.689519436133E-01 -0.699124918476E-01
 -0.708523920251E-01 -0.717689528875E-01 -0.726593388144E-01 -0.735205661552E-01 -0.743494998085E-01
 -0.751428500942E-01 -0.758971699733E-01 -0.766088526683E-01 -0.772741297500E-01 -0.778890697525E-01
 -0.784495773932E-01 -0.789513934718E-01 -0.793900955336E-01 -0.797610993851E-01 -0.800596615594E-01
 -0.802808828301E-01 -0.804197128846E-01 -0.804709562685E-01 -0.804292797234E-01 -0.802892210437E-01
 -0.800451995846E-01 -0.796915285611E-01 -0.792224292787E-01 -0.786320474464E-01 -0.779144717223E-01
 -0.770637546481E-01 -0.760739361291E-01 -0.749390696184E-01 -0.736532511644E-01 -0.722106514754E-01
 -0.706055511558E-01 -0.688323792580E-01 -0.668857552891E-01 -0.647605347972E-01 -0.624518586505E-01
 -0.599552061025E-01 -0.572664517159E-01 -0.543819261922E-01 -0.512984811228E-01 -0.480135576425E-01
 -0.445252589246E-01 -0.408324264109E-01 -0.369347196154E-01 -0.328326992792E-01 -0.285279135904E-01
 -0.240229871021E-01 -0.193217119041E-01 -0.144291405109E-01 -0.935167983469E-02 -0.409718551055E-02
  0.132494426165E-02  0.690367630012E-02  0.126262524933E-01  0.184781034721E-01  0.244427671629E-01
  0.305018136016E-01  0.366347775299E-01  0.428191004599E-01  0.490300840810E-01  0.552408570913E-01
  0.614223577318E-01  0.675433344799E-01  0.735703674851E-01  0.794679134128E-01  0.851983763840E-01
  0.907222076840E-01  0.959980368498E-01  0.100982836646E+00  0.105632124300E+00  0.109900201203E+00
  0.113740433047E+00  0.117105572148E+00  0.119948123346E+00  0.122220754508E+00  0.123876752174E+00
  0.124870522326E+00  0.125158135610E+00  0.124697915573E+00  0.123451067636E+00  0.121382345567E+00
  0.118460751170E+00  0.114660261745E+00  0.109960578679E+00  0.104347889203E+00  0.978156320003E-01
  0.903652559929E-01  0.820069602106E-01  0.727604013192E-01  0.626553540688E-01  0.517323087419E-01
  0.400429886315E-01  0.276507697469E-01  0.146309843905E-01  0.107109007318E-02 -0.129293144315E-01
 -0.272586431804E-01 -0.417936630873E-01 -0.564000338133E-01 -0.709330596437E-01 -0.852386641735E-01
 -0.991545979701E-01 -0.112511888962E+00 -0.125136544006E+00 -0.136851506310E+00 -0.147478865602E+00
 -0.156842306911E+00 -0.164769772519E+00 -0.171096304375E+00 -0.175667030035E+00 -0.178340251259E+00
 -0.178990588489E+00 -0.177512127408E+00 -0.173821507592E+00 -0.167860888733E+00 -0.159600726791E+00
 -0.149042290089E+00 -0.136219843751E+00 -0.121202429951E+00 -0.104095172011E+00 -0.850400324893E-01
 -0.642159600752E-01 -0.418383672141E-01 -0.181578906035E-01  0.654160044397E-02  0.319457673018E-01
  0.577133385400E-01  0.834803992607E-01  0.108865383544E+00  0.133474680205E+00  0.156908715805E+00
  0.178768349555E+00  0.198661442275E+00  0.216209574299E+00  0.231055035539E+00  0.242868202987E+00
  0.251355097311E+00  0.256264553824E+00  0.257394521550E+00  0.254597350938E+00  0.247784103540E+00
  0.236927874828E+00  0.222066043228E+00  0.203301333650E+00  0.180801617459E+00  0.154798433849E+00
  0.125584277905E+00  0.935087417464E-01  0.589736175916E-01  0.224270820418E-01 -0.156429143122E-01
 -0.547159252567E-01 -0.942468261589E-01 -0.133674037814E+00 -0.172428020634E+00 -0.209939898069E+00
 -0.245650063542E+00 -0.279016621973E+00 -0.309523515581E+00 -0.336688184844E+00 -0.360068617276E+00
 -0.379269643931E+00 -0.393948357820E+00 -0.403818565438E+00 -0.408654244868E+00 -0.408292062171E+00
 -0.402633049733E+00 -0.391643550732E+00 -0.375355434411E+00 -0.353865511736E+00 -0.327333996652E+00
 -0.295981912757E+00 -0.260087418085E+00 -0.219981109799E+00 -0.176040436274E+00 -0.128683377713E+00
 -0.783615730411E-01 -0.255530783086E-01  0.292450586191E-01  0.855242291274E-01  0.142771533648E+00
  0.200476742403E+00  0.258138816861E+00  0.315271888492E+00  0.371410609932E+00  0.426114821522E+00
  0.478973494078E+00  0.529607936334E+00  0.577674268516E+00  0.622865191658E+00  0.664911089621E+00
  0.703580522157E+00  0.738680176516E+00  0.770054355043E+00  0.797584082197E+00  0.821185916989E+00
  0.840810554557E+00  0.856441291726E+00  0.868092422816E+00  0.875807610339E+00  0.879658265614E+00
  0.879741948866E+00  0.876180794612E+00  0.869119945823E+00  0.858725982043E+00  0.845185316299E+00
  0.828702523876E+00  0.809498574074E+00  0.787808909543E+00  0.763881332699E+00  0.737973642663E+00
  0.710350986175E+00  0.681282908470E+00  0.651040123019E+00  0.619891082843E+00  0.588098465885E+00
  0.555915757933E+00  0.523584108221E+00  0.491329642357E+00  0.459361369781E+00  0.427869768945E+00
  0.397026063649E+00  0.366982137587E+00  0.337870977646E+00  0.309807496570E+00  0.282889565863E+00
  0.257199092321E+00  0.232802996160E+00  0.209753993113E+00  0.188091140297E+00  0.167840166488E+00
  0.149013659642E+00  0.131611217877E+00  0.115619679258E+00
 pseudo wavefunction
  0.768416578605E-04  0.793403568957E-04  0.819203073919E-04  0.845841514440E-04  0.873346170615E-04
  0.901745209617E-04  0.931067714547E-04  0.961343714216E-04  0.992604213897E-04  0.102488122708E-03
  0.105820780825E-03  0.109261808674E-03  0.112814730169E-03  0.116483183813E-03  0.120270926424E-03
  0.124181836981E-03  0.128219920600E-03  0.132389312633E-03  0.136694282901E-03  0.141139240073E-03
  0.145728736172E-03  0.150467471248E-03  0.155360298178E-03  0.160412227648E-03  0.165628433276E-03
  0.171014256915E-03  0.176575214121E-03  0.182316999802E-03  0.188245494052E-03  0.194366768170E-03
  0.200687090878E-03  0.207212934743E-03  0.213950982802E-03  0.220908135411E-03  0.228091517306E-03
  0.235508484904E-03  0.243166633832E-03  0.251073806711E-03  0.259238101184E-03  0.267667878210E-03
  0.276371770625E-03  0.285358691984E-03  0.294637845691E-03  0.304218734422E-03  0.314111169855E-03
  0.324325282724E-03  0.334871533186E-03  0.345760721541E-03  0.357003999287E-03  0.368612880543E-03
  0.380599253839E-03  0.392975394294E-03  0.405753976183E-03  0.418948085921E-03  0.432571235461E-03
  0.446637376133E-03  0.461160912935E-03  0.476156719280E-03  0.491640152231E-03  0.507627068230E-03
  0.524133839331E-03  0.541177369976E-03  0.558775114297E-03  0.576945094000E-03  0.595705916815E-03
  0.615076795557E-03  0.635077567802E-03  0.655728716199E-03  0.677051389453E-03  0.699067423981E-03
  0.721799366276E-03  0.745270495998E-03  0.769504849817E-03  0.794527246028E-03  0.820363309972E-03
  0.847039500278E-03  0.874583135963E-03  0.903022424410E-03  0.932386490259E-03  0.962705405234E-03
  0.994010218946E-03  0.102633299069E-02  0.105970682228E-02  0.109416589196E-02  0.112974548941E-02
  0.116648205187E-02  0.120441320149E-02  0.124357778385E-02  0.128401590775E-02  0.132576898628E-02
  0.136887977927E-02  0.141339243707E-02  0.145935254576E-02  0.150680717388E-02  0.155580492062E-02
  0.160639596559E-02  0.165863212027E-02  0.171256688104E-02  0.176825548403E-02  0.182575496164E-02
  0.188512420105E-02  0.194642400447E-02  0.200971715150E-02  0.207506846340E-02  0.214254486957E-02
  0.221221547604E-02  0.228415163635E-02  0.235842702465E-02  0.243511771117E-02  0.251430224022E-02
  0.259606171065E-02  0.268047985897E-02  0.276764314519E-02  0.285764084144E-02  0.295056512345E-02
  0.304651116508E-02  0.314557723586E-02  0.324786480176E-02  0.335347862921E-02  0.346252689255E-02
  0.357512128492E-02  0.369137713288E-02  0.381141351463E-02  0.393535338221E-02  0.406332368760E-02
  0.419545551300E-02  0.433188420535E-02  0.447274951519E-02  0.461819574017E-02  0.476837187313E-02
  0.492343175510E-02  0.508353423331E-02  0.524884332430E-02  0.541952838245E-02  0.559576427398E-02
  0.577773155671E-02  0.596561666562E-02  0.615961210459E-02  0.635991664439E-02  0.656673552721E-02
  0.678028067783E-02  0.700077092185E-02  0.722843221101E-02  0.746349785600E-02  0.770620876688E-02
  0.795681370151E-02  0.821556952215E-02  0.848274146051E-02  0.875860339164E-02  0.904343811687E-02
  0.933753765612E-02  0.964120354995E-02  0.995474717169E-02  0.102784900499E-01  0.106127642015E-01
  0.109579124765E-01  0.113142889136E-01  0.116822591083E-01  0.120622005930E-01  0.124545032302E-01
  0.128595696185E-01  0.132778155134E-01  0.137096702607E-01  0.141555772466E-01  0.146159943615E-01
  0.150913944805E-01  0.155822659604E-01  0.160891131536E-01  0.166124569398E-01  0.171528352765E-01
  0.177108037678E-01  0.182869362542E-01  0.188818254228E-01  0.194960834381E-01  0.201303425969E-01
  0.207852560049E-01  0.214614982789E-01  0.221597662735E-01  0.228807798343E-01  0.236252825793E-01
  0.243940427079E-01  0.251878538410E-01  0.260075358917E-01  0.268539359689E-01  0.277279293156E-01
  0.286304202826E-01  0.295623433397E-01  0.305246641266E-01  0.315183805451E-01  0.325445238944E-01
  0.336041600520E-01  0.346983907024E-01  0.358283546165E-01  0.369952289839E-01  0.382002308004E-01
  0.394446183157E-01  0.407296925419E-01  0.420567988291E-01  0.434273285090E-01  0.448427206137E-01
  0.463044636705E-01  0.478140975810E-01  0.493732155865E-01  0.509834663273E-01  0.526465559997E-01
  0.543642506196E-01  0.561383783968E-01  0.579708322286E-01  0.598635723214E-01  0.618186289466E-01
  0.638381053419E-01  0.659241807674E-01  0.680791137265E-01  0.703052453640E-01  0.726050030530E-01
  0.749809041849E-01  0.774355601761E-01  0.799716807076E-01  0.825920782139E-01  0.852996726393E-01
  0.880974964810E-01  0.909887001401E-01  0.939765576029E-01  0.970644724757E-01  0.100255984400E+00
  0.103554775876E+00  0.106964679520E+00  0.110489685792E+00  0.114133951226E+00  0.117901807192E+00
  0.121797769236E+00  0.125826547033E+00  0.129993054986E+00  0.134302423533E+00  0.138760011186E+00
  0.143371417362E+00  0.148142496043E+00  0.153079370319E+00  0.158188447858E+00  0.163476437350E+00
  0.168950365967E+00  0.174617597887E+00  0.180485853911E+00  0.186563232209E+00  0.192858230217E+00
  0.199379767688E+00  0.206137210916E+00  0.213140398080E+00  0.220399665693E+00  0.227925876068E+00
  0.235730445705E+00  0.243825374438E+00  0.252223275161E+00  0.260937403858E+00  0.269981689616E+00
  0.279370764188E+00  0.289119990603E+00  0.299245490155E+00  0.309764166992E+00  0.320693729351E+00
  0.332052706272E+00  0.343860458412E+00  0.356137181297E+00  0.368903899068E+00  0.382182446384E+00
  0.395995435777E+00  0.410366207265E+00  0.425318756515E+00  0.440877637253E+00  0.457067832952E+00
  0.473914592079E+00  0.491443220367E+00  0.509678822671E+00  0.528645985982E+00  0.548368394111E+00
  0.568868363441E+00  0.590166287948E+00  0.612279980538E+00  0.635223896488E+00  0.659008223720E+00
  0.683637823560E+00  0.709111004836E+00  0.735418113668E+00  0.762539921200E+00  0.790445792053E+00
  0.819091617626E+00  0.848417500697E+00  0.878345181551E+00  0.908775201189E+00  0.939583804695E+00
  0.970619597792E+00  0.100169998264E+01  0.103260741548E+01  0.106308554933E+01  0.109283535032E+01
  0.112151130648E+01  0.114871788374E+01  0.117400642537E+01  0.119687273804E+01  0.121675565959E+01
  0.123303695885E+01  0.124504297544E+01  0.125204846236E+01  0.125328314436E+01  0.124794154173E+01
  0.123519662684E+01  0.121421786703E+01  0.118419415213E+01  0.114436199139E+01  0.109403917920E+01
  0.103270415480E+01  0.960325940111E+00  0.877158153301E+00  0.783550940583E+00  0.679954035701E+00
  0.566921248972E+00  0.000000000000E+00  0.000000000000E+00  0.000000000000E+00  0.000000000000E+00
  0.000000000000E+00  0.000000000000E+00  0.000000000000E+00  0.000000000000E+00  0.000000000000E+00
  0.000000000000E+00  0.000000000000E+00  0.000000000000E+00  0.000000000000E+00  0.000000000000E+00
  0.000000000000E+00  0.000000000000E+00  0.000000000000E+00  0.000000000000E+00  0.000000000000E+00
  0.000000000000E+00  0.000000000000E+00  0.000000000000E+00  0.000000000000E+00  0.000000000000E+00
  0.000000000000E+00  0.000000000000E+00  0.000000000000E+00
 ae wavefunction
 -0.927692851721E-02 -0.952404925296E-02 -0.977762647587E-02 -0.100378221467E-01 -0.103048018574E-01
 -0.105787348862E-01 -0.108597942519E-01 -0.111481567669E-01 -0.114440030885E-01 -0.117475177695E-01
 -0.120588893057E-01 -0.123783101830E-01 -0.127059769206E-01 -0.130420901127E-01 -0.133868544673E-01
 -0.137404788409E-01 -0.141031762711E-01 -0.144751640042E-01 -0.148566635194E-01 -0.152479005473E-01
 -0.156491050848E-01 -0.160605114029E-01 -0.164823580500E-01 -0.169148878472E-01 -0.173583478779E-01
 -0.178129894687E-01 -0.182790681623E-01 -0.187568436824E-01 -0.192465798873E-01 -0.197485447144E-01
 -0.202630101137E-01 -0.207902519685E-01 -0.213305500039E-01 -0.218841876818E-01 -0.224514520807E-01
 -0.230326337606E-01 -0.236280266100E-01 -0.242379276767E-01 -0.248626369778E-01 -0.255024572909E-01
 -0.261576939225E-01 -0.268286544541E-01 -0.275156484634E-01 -0.282189872196E-01 -0.289389833507E-01
 -0.296759504819E-01 -0.304302028419E-01 -0.312020548369E-01 -0.319918205886E-01 -0.327998134356E-01
 -0.336263453948E-01 -0.344717265812E-01 -0.353362645832E-01 -0.362202637919E-01 -0.371240246794E-01
 -0.380478430268E-01 -0.389920090957E-01 -0.399568067419E-01 -0.409425124683E-01 -0.419493944127E-01
 -0.429777112681E-01 -0.440277111310E-01 -0.450996302753E-01 -0.461936918464E-01 -0.473101044737E-01
 -0.484490607946E-01 -0.496107358892E-01 -0.507952856180E-01 -0.520028448613E-01 -0.532335256528E-01
 -0.544874152060E-01 -0.557645738253E-01 -0.570650326996E-01 -0.583887915722E-01 -0.597358162826E-01
 -0.611060361745E-01 -0.624993413659E-01 -0.639155798755E-01 -0.653545546013E-01 -0.668160201448E-01
 -0.682996794781E-01 -0.698051804474E-01 -0.713321121087E-01 -0.728800008925E-01 -0.744483065912E-01
 -0.760364181671E-01 -0.776436493773E-01 -0.792692342110E-01 -0.809123221394E-01 -0.825719731729E-01
 -0.842471527277E-01 -0.859367262982E-01 -0.876394539385E-01 -0.893539845525E-01 -0.910788499953E-01
 -0.928124589909E-01 -0.945530908702E-01 -0.962988891372E-01 -0.980478548706E-01 -0.997978399729E-01
 -0.101546540279E+00 -0.103291488537E+00 -0.105030047288E+00 -0.106759401649E+00 -0.108476552038E+00
 -0.110178306863E+00 -0.111861275202E+00 -0.113521859511E+00 -0.115156248405E+00 -0.116760409542E+00
 -0.118330082675E+00 -0.119860772909E+00 -0.121347744241E+00 -0.122786013431E+00 -0.124170344288E+00
 -0.125495242449E+00 -0.126754950735E+00 -0.127943445173E+00 -0.129054431806E+00 -0.130081344377E+00
 -0.131017343028E+00 -0.131855314130E+00 -0.132587871391E+00 -0.133207358393E+00 -0.133705852701E+00
 -0.134075171742E+00 -0.134306880606E+00 -0.134392301975E+00 -0.134322528383E+00 -0.134088437007E+00
 -0.133680707220E+00 -0.133089841136E+00 -0.132306187376E+00 -0.131319968322E+00 -0.130121311091E+00
 -0.128700282503E+00 -0.127046928303E+00 -0.125151316896E+00 -0.123003587869E+00 -0.120594005548E+00
 -0.117913017857E+00 -0.114951320717E+00 -0.111699928208E+00 -0.108150248720E+00 -0.104294167267E+00
 -0.100124134127E+00 -0.956332599313E-01 -0.908154172708E-01 -0.856653488616E-01 -0.801787822246E-01
 -0.743525507846E-01 -0.681847212091E-01 -0.616747267164E-01 -0.548235059848E-01 -0.476336471794E-01
 -0.401095364901E-01 -0.322575104328E-01 -0.240860110200E-01 -0.156057427450E-01 -0.682983015466E-02
  0.222602538385E-02  0.115433912950E-01  0.211009535312E-01  0.308743723562E-01  0.408361462808E-01
  0.509554864577E-01  0.611982040774E-01  0.715266135822E-01  0.818994548287E-01  0.922718376793E-01
  0.102595212829E+00  0.112817372970E+00  0.122882488619E+00  0.132731183047E+00  0.142300650819E+00
  0.151524824403E+00  0.160334593206E+00  0.168658079248E+00  0.176420973419E+00  0.183546936014E+00
  0.189958064860E+00  0.195575433919E+00  0.200319704746E+00  0.204111812474E+00  0.206873727265E+00
  0.208529291182E+00  0.209005129359E+00  0.208231633094E+00  0.206144011035E+00  0.202683403069E+00
  0.197798049750E+00  0.191444508184E+00  0.183588903258E+00  0.174208200901E+00  0.163291487844E+00
  0.150841239986E+00  0.136874559197E+00  0.121424356083E+00  0.104540454089E+00  0.862905883101E-01
  0.667612706382E-01  0.460584914650E-01  0.243082272391E-01  0.165672287098E-02 -0.217294814690E-01
 -0.456638080915E-01 -0.699402105037E-01 -0.943340764360E-01 -0.118603485506E+00 -0.142490839672E+00
 -0.165724883556E+00 -0.188023130981E+00 -0.209094711932E+00 -0.228643647820E+00 -0.246372549891E+00
 -0.261986717200E+00 -0.275198591683E+00 -0.285732515667E+00 -0.293329730090E+00 -0.297753545114E+00
 -0.298794604875E+00 -0.296276156366E+00 -0.290059222062E+00 -0.280047568238E+00 -0.266192355701E+00
 -0.248496355683E+00 -0.227017610804E+00 -0.201872419534E+00 -0.173237523306E+00 -0.141351379052E+00
 -0.106514407568E+00 -0.690881200485E-01 -0.294930421227E-01  0.117946237736E-01  0.542476309923E-01
  0.972936194410E-01  0.140322311006E+00  0.182693886978E+00  0.223748397715E+00  0.262815977398E+00
  0.299227587838E+00  0.332326061495E+00  0.361477402317E+00  0.386082550271E+00  0.405589800717E+00
  0.419507527666E+00  0.427416264835E+00  0.428979330893E+00  0.423951765072E+00  0.412187627046E+00
  0.393645643698E+00  0.368393054643E+00  0.336607467158E+00  0.298576587544E+00  0.254695801341E+00
  0.205463675344E+00  0.151475522828E+00  0.934152105829E-01  0.320454037346E-01 -0.318035477464E-01
 -0.972458724903E-01 -0.163353578505E+00 -0.229170373216E+00 -0.293726077355E+00 -0.356051298728E+00
 -0.415192123493E+00 -0.470224576614E+00 -0.520268600145E+00 -0.564501299301E+00 -0.602169208761E+00
 -0.632599343425E+00 -0.655208821661E+00 -0.669512911108E+00 -0.675131450800E+00 -0.671793732240E+00
 -0.659342005064E+00 -0.637733768604E+00 -0.607042841113E+00 -0.567459072519E+00 -0.519286429596E+00
 -0.462939277461E+00 -0.398936806641E+00 -0.327895704708E+00 -0.250521281493E+00 -0.167597313153E+00
 -0.799748983245E-01  0.114393678414E-01  0.105695596953E+00  0.201812894782E+00  0.298791459435E+00
  0.395624250362E+00  0.491308018199E+00  0.584853534268E+00  0.675294889830E+00  0.761697785929E+00
  0.843166766611E+00  0.918851399044E+00  0.987951428266E+00  0.104972098635E+01  0.110347195077E+01
  0.114857658591E+01  0.118446961934E+01  0.121064992142E+01  0.122668196601E+01  0.123219725008E+01
  0.122689584025E+01  0.121054818961E+01  0.118299734173E+01  0.114416158964E+01  0.109403762489E+01
  0.103270415480E+01  0.960325940111E+00  0.877158153301E+00  0.783550940583E+00  0.679954035701E+00
  0.566921248972E+00  0.000000000000E+00  0.000000000000E+00  0.000000000000E+00  0.000000000000E+00
  0.000000000000E+00  0.000000000000E+00  0.000000000000E+00  0.000000000000E+00  0.000000000000E+00
  0.000000000000E+00  0.000000000000E+00  0.000000000000E+00  0.000000000000E+00  0.000000000000E+00
  0.000000000000E+00  0.000000000000E+00  0.000000000000E+00  0.000000000000E+00  0.000000000000E+00
  0.000000000000E+00  0.000000000000E+00  0.000000000000E+00  0.000000000000E+00  0.000000000000E+00
  0.000000000000E+00  0.000000000000E+00  0.000000000000E+00
 pseudo wavefunction
  0.222799428311E-08  0.237524777039E-08  0.253223359397E-08  0.269959498730E-08  0.287801769671E-08
  0.306823279110E-08  0.327101965752E-08  0.348720919456E-08  0.371768721689E-08  0.396339808481E-08
  0.422534857365E-08  0.450461199895E-08  0.480233261425E-08  0.511973029956E-08  0.545810555968E-08
  0.581884485293E-08  0.620342627195E-08  0.661342560012E-08  0.705052276809E-08  0.751650873722E-08
  0.801329283777E-08  0.854291059226E-08  0.910753205578E-08  0.970947070759E-08  0.103511929304E-07
  0.110353281160E-07  0.117646794391E-07  0.125422353430E-07  0.133711817843E-07  0.142549152874E-07
  0.151970568609E-07  0.162014668349E-07  0.172722606776E-07  0.184138258590E-07  0.196308398272E-07
  0.209282891743E-07  0.223114900682E-07  0.237861100355E-07  0.253581911830E-07  0.270341749553E-07
  0.288209285275E-07  0.307257729431E-07  0.327565131109E-07  0.349214697856E-07  0.372295136603E-07
  0.396901017141E-07  0.423133159609E-07  0.451099047594E-07  0.480913268536E-07  0.512697983242E-07
  0.546583426422E-07  0.582708440320E-07  0.621221043606E-07  0.662279037864E-07  0.706050654179E-07
  0.752715242441E-07  0.802464006217E-07  0.855500786194E-07  0.912042895397E-07  0.972322009606E-07
  0.103658511664E-06  0.110509552834E-06  0.117813395953E-06  0.125599967813E-06  0.133901173147E-06
  0.142751025352E-06  0.152185785855E-06  0.162244112696E-06  0.172967218921E-06  0.184399041456E-06
  0.196586421127E-06  0.209579294597E-06  0.223430898969E-06  0.238197989929E-06  0.253941074293E-06
  0.270724657937E-06  0.288617510098E-06  0.307692945161E-06  0.328029123054E-06  0.349709369510E-06
  0.372822517487E-06  0.397463271162E-06  0.423732593974E-06  0.451738122322E-06  0.481594606600E-06
  0.513424381388E-06  0.547357866715E-06  0.583534102453E-06  0.622101318034E-06  0.663217539824E-06
  0.707051238633E-06  0.753782020032E-06  0.803601360291E-06  0.856713390959E-06  0.913335735307E-06
  0.973700400047E-06  0.103805472600E-05  0.110666240159E-05  0.117980454334E-05  0.125778084777E-05
  0.134091081944E-05  0.142953508015E-05  0.152401676473E-05  0.162474300899E-05  0.173212653612E-05
  0.184660734789E-05  0.196865452767E-05  0.209876816257E-05  0.223748139275E-05  0.238536259606E-05
  0.254301771717E-05  0.271109275063E-05  0.289027638809E-05  0.308130284048E-05  0.328495484675E-05
  0.350206688154E-05  0.373352857486E-05  0.398028835782E-05  0.424335734943E-05  0.452381350028E-05
  0.482280601019E-05  0.514156003794E-05  0.548138172229E-05  0.584366353506E-05  0.622988998804E-05
  0.664164371725E-05  0.708061196947E-05  0.754859351769E-05  0.804750603372E-05  0.857939394844E-05
  0.914643683165E-05  0.975095832621E-05  0.103954356728E-04  0.110825098648E-04  0.118149964746E-04
  0.125958971958E-04  0.134284121492E-04  0.143159530023E-04  0.152621569572E-04  0.162709016629E-04
  0.173463211148E-04  0.184928226064E-04  0.197151048011E-04  0.210181770015E-04  0.224073796929E-04
  0.238884064459E-04  0.254673272695E-04  0.271506135094E-04  0.289451643944E-04  0.308583353402E-04
  0.328979681277E-04  0.350724230784E-04  0.373906133622E-04  0.398620415759E-04  0.424968387459E-04
  0.453058059147E-04  0.483004584821E-04  0.514930734869E-04  0.548967400204E-04  0.585254129847E-04
  0.623939704135E-04  0.665182745967E-04  0.709152372591E-04  0.756028890642E-04  0.806004537323E-04
  0.859284270782E-04  0.916086612999E-04  0.976644548654E-04  0.104120648374E-03  0.111003726792E-03
  0.118341928485E-03  0.126165361504E-03  0.134506127621E-03  0.143398454610E-03  0.152878837353E-03
  0.162986188351E-03  0.173761998268E-03  0.185250507193E-03  0.197498887346E-03  0.210557437980E-03
  0.224479793326E-03  0.239323144458E-03  0.255148476006E-03  0.272020818749E-03  0.290009519152E-03
  0.309188527003E-03  0.329636702395E-03  0.351438143365E-03  0.374682535609E-03  0.399465525799E-03
  0.425889120107E-03  0.454062109702E-03  0.484100525064E-03  0.516128121128E-03  0.550276895402E-03
  0.586687641359E-03  0.625510539580E-03  0.666905789293E-03  0.711044283166E-03  0.758108328418E-03
  0.808292417536E-03  0.861804052143E-03  0.918864623832E-03  0.979710356070E-03  0.104459331159E-02
  0.111378247002E-02  0.118756488097E-02  0.126624689797E-02  0.135015549940E-02  0.143963970278E-02
  0.153507207949E-02  0.163685037739E-02  0.174539925960E-02  0.186117216828E-02  0.198465332305E-02
  0.211635986438E-02  0.225684415343E-02  0.240669624045E-02  0.256654651524E-02  0.273706855414E-02
  0.291898217934E-02  0.311305674781E-02  0.332011468865E-02  0.354103530924E-02  0.377675889268E-02
  0.402829111093E-02  0.429670778035E-02  0.458315998892E-02  0.488887962702E-02  0.521518535698E-02
  0.556348905971E-02  0.593530280036E-02  0.633224635954E-02  0.675605538041E-02  0.720859018743E-02
  0.769184533790E-02  0.820795997316E-02  0.875922904339E-02  0.934811548674E-02  0.997726345174E-02
  0.106495126608E-01  0.113679140218E-01  0.121357466056E-01  0.129565361188E-01  0.138340750129E-01
  0.147724443855E-01  0.157760378432E-01  0.168495875116E-01  0.179981923957E-01  0.192273493112E-01
  0.205429866270E-01  0.219515010808E-01  0.234597979488E-01  0.250753348763E-01  0.268061696960E-01
  0.286610125856E-01  0.306492829405E-01  0.327811713574E-01  0.350677071481E-01  0.375208318195E-01
  0.401534789714E-01  0.429796610737E-01  0.460145635849E-01  0.492746468688E-01  0.527777563452E-01
  0.565432412738E-01  0.605920825175E-01  0.649470295452E-01  0.696327468260E-01  0.746759696137E-01
  0.801056689218E-01  0.859532252379E-01  0.922526102030E-01  0.990405750804E-01  0.106356844344E+00
  0.114244312111E+00  0.122749238406E+00  0.131921441378E+00  0.141814480521E+00  0.152485824750E+00
  0.163996997715E+00  0.176413691102E+00  0.189805834736E+00  0.204247610180E+00  0.219817392112E+00
  0.236597599098E+00  0.254674432573E+00  0.274137479773E+00  0.295079153315E+00  0.317593937010E+00
  0.341777404688E+00  0.367724976345E+00  0.395530374215E+00  0.425283740793E+00  0.457069381731E+00
  0.490963099690E+00  0.527029091092E+00  0.565316387273E+00  0.605854835522E+00  0.648650634892E+00
  0.693681467439E+00  0.740891298514E+00  0.790184960564E+00  0.841422683932E+00  0.894414794995E+00
  0.948916865520E+00  0.100462566487E+01  0.106117633458E+01  0.111814126658E+01  0.117503121353E+01
  0.123129918007E+01  0.128634762342E+01  0.133954120979E+01  0.139044040375E+01  0.143904134063E+01
  0.148542114071E+01  0.000000000000E+00  0.000000000000E+00  0.000000000000E+00  0.000000000000E+00
  0.000000000000E+00  0.000000000000E+00  0.000000000000E+00  0.000000000000E+00  0.000000000000E+00
  0.000000000000E+00  0.000000000000E+00  0.000000000000E+00  0.000000000000E+00  0.000000000000E+00
  0.000000000000E+00  0.000000000000E+00  0.000000000000E+00  0.000000000000E+00  0.000000000000E+00
  0.000000000000E+00  0.000000000000E+00  0.000000000000E+00  0.000000000000E+00  0.000000000000E+00
  0.000000000000E+00  0.000000000000E+00  0.000000000000E+00
 ae wavefunction
  0.384762093587E-04  0.406002598509E-04  0.428371576149E-04  0.451931380640E-04  0.476747706333E-04
  0.502889773373E-04  0.530430523385E-04  0.559446825781E-04  0.590019695296E-04  0.622234521386E-04
  0.656181310142E-04  0.691954939438E-04  0.729655428026E-04  0.769388219390E-04  0.811264481149E-04
  0.855401420914E-04  0.901922619467E-04  0.950958382289E-04  0.100264611039E-03  0.105713069158E-03
  0.111456491323E-03  0.117510989784E-03  0.123893556253E-03  0.130622110388E-03  0.137715550949E-03
  0.145193809772E-03  0.153077908714E-03  0.161390019740E-03  0.170153528311E-03  0.179393100273E-03
  0.189134752412E-03  0.199405926898E-03  0.210235569821E-03  0.221654214030E-03  0.233694066529E-03
  0.246389100658E-03  0.259775153318E-03  0.273890027522E-03  0.288773600543E-03  0.304467937969E-03
  0.321017413956E-03  0.338468838046E-03  0.356871588845E-03  0.376277754967E-03  0.396742283589E-03
  0.418323137029E-03  0.441081457753E-03  0.465081742246E-03  0.490392024201E-03  0.517084067485E-03
  0.545233569388E-03  0.574920374658E-03  0.606228700856E-03  0.639247375582E-03  0.674070086161E-03
  0.710795642364E-03  0.749528252804E-03  0.790377815634E-03  0.833460224214E-03  0.878897688437E-03
  0.926819072401E-03  0.977360249172E-03  0.103066447336E-02  0.108688277231E-02  0.114617435658E-02
  0.120870705071E-02  0.127465774481E-02  0.134421286800E-02  0.141756888449E-02  0.149493281300E-02
  0.157652277050E-02  0.166256854104E-02  0.175331217047E-02  0.184900858785E-02  0.194992625441E-02
  0.205634784066E-02  0.216857093256E-02  0.228690876723E-02  0.241169099902E-02  0.254326449629E-02
  0.268199416949E-02  0.282826383095E-02  0.298247708648E-02  0.314505825916E-02  0.331645334513E-02
  0.349713100124E-02  0.368758356433E-02  0.388832810144E-02  0.409990749013E-02  0.432289152795E-02
  0.455787806958E-02  0.480549418987E-02  0.506639737085E-02  0.534127670995E-02  0.563085414664E-02
  0.593588570386E-02  0.625716274017E-02  0.659551320805E-02  0.695180291273E-02  0.732693676562E-02
  0.772186002522E-02  0.813755951775E-02  0.857506482862E-02  0.903544945469E-02  0.951983190656E-02
  0.100293767482E-01  0.105652955605E-01  0.111288478135E-01  0.117213416309E-01  0.123441344273E-01
  0.129986334003E-01  0.136862958524E-01  0.144086293211E-01  0.151671914888E-01  0.159635898458E-01
  0.167994810734E-01  0.176765701142E-01  0.185966088933E-01  0.195613946508E-01  0.205727678436E-01
  0.216326095706E-01  0.227428384730E-01  0.239054070585E-01  0.251222973933E-01  0.263955161034E-01
  0.277270886242E-01  0.291190526314E-01  0.305734505859E-01  0.320923213193E-01  0.336776905857E-01
  0.353315605006E-01  0.370558977871E-01  0.388526207448E-01  0.407235848566E-01  0.426705669470E-01
  0.446952478037E-01  0.467991931746E-01  0.489838330537E-01  0.512504391709E-01  0.536001006023E-01
  0.560336974244E-01  0.585518723385E-01  0.611550002025E-01  0.638431554130E-01  0.666160770955E-01
  0.694731320729E-01  0.724132756002E-01  0.754350098720E-01  0.785363403337E-01  0.817147298539E-01
  0.849670508446E-01  0.882895354529E-01  0.916777239850E-01  0.951264117670E-01  0.986295946968E-01
  0.102180413791E+00  0.105771099089E+00  0.109392913337E+00  0.113036095927E+00  0.116689807649E+00
  0.120342076856E+00  0.123979747729E+00  0.127588431373E+00  0.131152460606E+00  0.134654849325E+00
  0.138077257524E+00  0.141399963132E+00  0.144601842025E+00  0.147660357731E+00  0.150551562531E+00
  0.153250111775E+00  0.155729293351E+00  0.157961074272E+00  0.159916166359E+00  0.161564112986E+00
  0.162873398768E+00  0.163811584043E+00  0.164345465893E+00  0.164441267382E+00  0.164064856538E+00
  0.163181996539E+00  0.161758628334E+00  0.159761186768E+00  0.157156950966E+00  0.153914429414E+00
  0.150003779729E+00  0.145397262625E+00  0.140069729010E+00  0.133999138451E+00  0.127167106533E+00
  0.119559477779E+00  0.111166919895E+00  0.101985534098E+00  0.920174752568E-01  0.812715744400E-01
  0.697639553397E-01  0.575186348682E-01  0.445680970818E-01  0.309538284651E-01  0.167268015672E-01
  0.194789303729E-02 -0.133117786654E-01 -0.289706111514E-01 -0.449363870396E-01 -0.611062691811E-01
 -0.773669366581E-01 -0.935948749051E-01 -0.109656832067E+00 -0.125410452885E+00 -0.140705101437E+00
 -0.155382884917E+00 -0.169279891657E+00 -0.182227656353E+00 -0.194054862011E+00 -0.204589279919E+00
 -0.213659937440E+00 -0.221099492482E+00 -0.226746788111E+00 -0.230449558833E+00 -0.232067257870E+00
 -0.231473969448E+00 -0.228561363170E+00 -0.223241641376E+00 -0.215450425772E+00 -0.205149526237E+00
 -0.192329531645E+00 -0.177012159572E+00 -0.159252299098E+00 -0.139139679081E+00 -0.116800093712E+00
 -0.923961187070E-01 -0.661272552565E-01 -0.382294455583E-01 -0.897391294989E-02  0.213347085201E-01
  0.523609759020E-01  0.837419726710E-01  0.115091352320E+00  0.146004024011E+00  0.176061363124E+00
  0.204836794100E+00  0.231901621091E+00  0.256831113721E+00  0.279211042745E+00  0.298644878022E+00
  0.314761493164E+00  0.327222772038E+00  0.335730562516E+00  0.340032821522E+00  0.339929010340E+00
  0.335274751321E+00  0.325985651829E+00  0.312040151633E+00  0.293481271222E+00  0.270417201163E+00
  0.243020738371E+00  0.211527621387E+00  0.176233841539E+00  0.137492017215E+00  0.957069217482E-01
  0.513302560518E-01  0.485475769085E-02 -0.431922602285E-01 -0.922558431483E-01 -0.141760699062E+00
 -0.191118761914E+00 -0.239736896009E+00 -0.287024615484E+00 -0.332401685983E+00 -0.375305467849E+00
 -0.415197854995E+00 -0.451571664112E+00 -0.483956353747E+00 -0.511923012481E+00 -0.535088648056E+00
 -0.553119889488E+00 -0.565736242889E+00 -0.572712941123E+00 -0.573883317905E+00 -0.569140494433E+00
 -0.558438183943E+00 -0.541790470901E+00 -0.519270519802E+00 -0.491008249796E+00 -0.457187059597E+00
 -0.418039716274E+00 -0.373843541636E+00 -0.324915043069E+00 -0.271604139663E+00 -0.214288141151E+00
 -0.153365629258E+00 -0.892503782419E-01 -0.223654461857E-01  0.468624554492E-01  0.118008218378E+00
  0.190653145081E+00  0.264389249796E+00  0.338823013767E+00  0.413578576721E+00  0.488300361745E+00
  0.562655152051E+00  0.636333654089E+00  0.709051598985E+00  0.780550449392E+00  0.850597792512E+00
  0.918987510130E+00  0.985539820016E+00  0.105010128576E+01  0.111254487977E+01  0.117277018120E+01
  0.123070376683E+01  0.128629985176E+01  0.133954120979E+01  0.139044040375E+01  0.143904134063E+01
  0.148542114071E+01  0.000000000000E+00  0.000000000000E+00  0.000000000000E+00  0.000000000000E+00
  0.000000000000E+00  0.000000000000E+00  0.000000000000E+00  0.000000000000E+00  0.000000000000E+00
  0.000000000000E+00  0.000000000000E+00  0.000000000000E+00  0.000000000000E+00  0.000000000000E+00
  0.000000000000E+00  0.000000000000E+00  0.000000000000E+00  0.000000000000E+00  0.000000000000E+00
  0.000000000000E+00  0.000000000000E+00  0.000000000000E+00  0.000000000000E+00  0.000000000000E+00
  0.000000000000E+00  0.000000000000E+00  0.000000000000E+00
 pseudo wavefunction
  0.781627338550E-08  0.833286964401E-08  0.888360898858E-08  0.947074801770E-08  0.100966924738E-07
  0.107640071008E-07  0.114754261524E-07  0.122338645960E-07  0.130424300559E-07  0.139044355470E-07
  0.148234130492E-07  0.158031279793E-07  0.168475946199E-07  0.179610925667E-07  0.191481842645E-07
  0.204137337010E-07  0.217629263364E-07  0.232012903504E-07  0.247347192936E-07  0.263694962352E-07
  0.281123195079E-07  0.299703301530E-07  0.319511411804E-07  0.340628687623E-07  0.363141654881E-07
  0.387142558176E-07  0.412729738774E-07  0.440008037553E-07  0.469089224572E-07  0.500092457048E-07
  0.533144767581E-07  0.568381584662E-07  0.605947287577E-07  0.645995797988E-07  0.688691210607E-07
  0.734208465564E-07  0.782734065201E-07  0.834466838249E-07  0.889618754512E-07  0.948415793385E-07
  0.101109886979E-06  0.107792482129E-06  0.114916746048E-06  0.122511869686E-06  0.130608973297E-06
  0.139241233945E-06  0.148444021447E-06  0.158255043297E-06  0.168714499169E-06  0.179865245630E-06
  0.191752971742E-06  0.204426386267E-06  0.217937417247E-06  0.232341424775E-06  0.247697427828E-06
  0.264068346089E-06  0.281521257757E-06  0.300127674391E-06  0.319963833925E-06  0.341111013042E-06
  0.363655860203E-06  0.387690750675E-06  0.413314165032E-06  0.440631092672E-06  0.469753462001E-06
  0.500800599048E-06  0.533899716391E-06  0.569186434404E-06  0.606805336945E-06  0.646910563780E-06
  0.689666442151E-06  0.735248160099E-06  0.783842484278E-06  0.835648525218E-06  0.890878553164E-06
  0.949758867832E-06  0.101253072566E-05  0.107945132833E-05  0.115079487665E-05  0.122685369403E-05
  0.130793942431E-05  0.139438430865E-05  0.148654254691E-05  0.158479174891E-05  0.168953448171E-05
  0.180119991905E-05  0.192024559992E-05  0.204715930327E-05  0.218246104664E-05  0.232670521695E-05
  0.248048284202E-05  0.264442401232E-05  0.281920046274E-05  0.300552832495E-05  0.320417106180E-05
  0.341594259551E-05  0.364171064275E-05  0.388240027007E-05  0.413899768436E-05  0.441255427380E-05
  0.470419091595E-05  0.501510257053E-05  0.534656317578E-05  0.569993086848E-05  0.607665354891E-05
  0.647827481368E-05  0.690644028072E-05  0.736290433223E-05  0.784953730344E-05  0.836833314641E-05
  0.892141760041E-05  0.951105690239E-05  0.101396670731E-04  0.108098238171E-04  0.115242730770E-04
  0.122859422854E-04  0.130979523607E-04  0.139636304954E-04  0.148865237903E-04  0.158704137894E-04
  0.169193319756E-04  0.180375762911E-04  0.192297287495E-04  0.205006742119E-04  0.218556204047E-04
  0.233001192599E-04  0.248400896668E-04  0.264818417274E-04  0.282321026149E-04  0.300980441421E-04
  0.320873121521E-04  0.342080578515E-04  0.364689712160E-04  0.388793166033E-04  0.414489707216E-04
  0.441884631068E-04  0.471090192776E-04  0.502226067422E-04  0.535419840477E-04  0.570807530725E-04
  0.608534147759E-04  0.648754286343E-04  0.691632760076E-04  0.737345276952E-04  0.786079159600E-04
  0.838034113155E-04  0.893423043898E-04  0.952472932055E-04  0.101542576231E-03  0.108253951586E-03
  0.115408922810E-03  0.123036811629E-03  0.131168878175E-03  0.139838449167E-03  0.149081054567E-03
  0.158934573282E-03  0.169439388503E-03  0.180638553324E-03  0.192577967323E-03  0.205306564834E-03
  0.218876515670E-03  0.233343439144E-03  0.248766632256E-03  0.265209312986E-03  0.282738879702E-03
  0.301427187746E-03  0.321350844338E-03  0.342591523023E-03  0.365236298946E-03  0.389378006351E-03
  0.415115619765E-03  0.442554660464E-03  0.471807629878E-03  0.502994471749E-03  0.536243064936E-03
  0.571689748923E-03  0.609479884201E-03  0.649768449851E-03  0.692720680805E-03  0.738512747437E-03
  0.787332480313E-03  0.839380143103E-03  0.894869256891E-03  0.954027479316E-03  0.101709754221E-02
  0.108433825167E-02  0.115602555469E-02  0.123245367696E-02  0.131393633645E-02  0.140080803792E-02
  0.149342545398E-02  0.159216889821E-02  0.169744389685E-02  0.180968286557E-02  0.192934689846E-02
  0.205692767687E-02  0.219294950615E-02  0.233797148915E-02  0.249258984558E-02  0.265744038736E-02
  0.283320116055E-02  0.302059526516E-02  0.322039386526E-02  0.343341940227E-02  0.366054902556E-02
  0.390271825524E-02  0.416092489333E-02  0.443623320052E-02  0.472977835683E-02  0.504277122627E-02
  0.537650344643E-02  0.573235286604E-02  0.611178935481E-02  0.651638101183E-02  0.694780080088E-02
  0.740783364263E-02  0.789838399652E-02  0.842148396720E-02  0.897930197296E-02  0.957415201673E-02
  0.102085036028E-01  0.108849923463E-01  0.116064313251E-01  0.123758232284E-01  0.131963733602E-01
  0.140715035598E-01  0.150048671059E-01  0.160003646777E-01  0.170621614490E-01  0.181947053996E-01
  0.194027469325E-01  0.206913598933E-01  0.220659640946E-01  0.235323494543E-01  0.250967018663E-01
  0.267656309296E-01  0.285461996677E-01  0.304459563823E-01  0.324729687911E-01  0.346358606095E-01
  0.369438507434E-01  0.394067952695E-01  0.420352323854E-01  0.448404305201E-01  0.478344397982E-01
  0.510301470546E-01  0.544413345993E-01  0.580827429220E-01  0.619701375263E-01  0.661203800620E-01
  0.705515039053E-01  0.752827943066E-01  0.803348731795E-01  0.857297885484E-01  0.914911085960E-01
  0.976440201531E-01  0.104215431347E+00  0.111234077971E+00  0.118730632928E+00  0.126737817875E+00
  0.135290515872E+00  0.144425883478E+00  0.154183460293E+00  0.164605273376E+00  0.175735933336E+00
  0.187622718092E+00  0.200315639347E+00  0.213867485726E+00  0.228333835197E+00  0.243773027847E+00
  0.260246088299E+00  0.277816584933E+00  0.296550410713E+00  0.316515467622E+00  0.337781233628E+00
  0.360418187600E+00  0.384497063683E+00  0.410087902457E+00  0.437258861565E+00  0.466074743732E+00
  0.496595195111E+00  0.528872522027E+00  0.562949069583E+00  0.598854101726E+00  0.636600119568E+00
  0.676178553826E+00  0.717554768807E+00  0.760662320586E+00  0.805396421992E+00  0.851606583411E+00
  0.899088422833E+00  0.947574673168E+00  0.996725461951E+00  0.104611800055E+01  0.109523589959E+01
  0.114345842677E+01  0.119005014518E+01  0.123415151497E+01  0.127477121031E+01  0.131078109345E+01
  0.134091499481E+01  0.136377266280E+01  0.137783045597E+01  0.138146053255E+01  0.137296041946E+01
  0.135059487838E+01  0.131265188133E+01  0.125751420831E+01  0.118374761805E+01  0.109020565481E+01
  0.976149872741E+00  0.841382536172E+00  0.686387597081E+00  0.512561220970E+00  0.322293393805E+00
  0.118746687146E+00  0.000000000000E+00  0.000000000000E+00  0.000000000000E+00  0.000000000000E+00
  0.000000000000E+00  0.000000000000E+00  0.000000000000E+00  0.000000000000E+00  0.000000000000E+00
  0.000000000000E+00  0.000000000000E+00  0.000000000000E+00  0.000000000000E+00  0.000000000000E+00
  0.000000000000E+00  0.000000000000E+00  0.000000000000E+00  0.000000000000E+00  0.000000000000E+00
  0.000000000000E+00  0.000000000000E+00  0.000000000000E+00  0.000000000000E+00  0.000000000000E+00
  0.000000000000E+00  0.000000000000E+00  0.000000000000E+00
 ae wavefunction
  0.612852021229E-04  0.646684083790E-04  0.682313586434E-04  0.719839847357E-04  0.759367505070E-04
  0.801006814008E-04  0.844873956197E-04  0.891091369876E-04  0.939788095980E-04  0.991100143536E-04
  0.104517087498E-03  0.110215141256E-03  0.116220106695E-03  0.122548778938E-03  0.129218864851E-03
  0.136249033357E-03  0.143658968498E-03  0.151469425435E-03  0.159702289508E-03  0.168380638558E-03
  0.177528808677E-03  0.187172463577E-03  0.197338667788E-03  0.208055963875E-03  0.219354453925E-03
  0.231265885512E-03  0.243823742406E-03  0.257063340271E-03  0.271021927641E-03  0.285738792449E-03
  0.301255374414E-03  0.317615383617E-03  0.334864925585E-03  0.353052633249E-03  0.372229806140E-03
  0.392450557213E-03  0.413771967716E-03  0.436254250527E-03  0.459960922415E-03  0.484958985697E-03
  0.511319119798E-03  0.539115883219E-03  0.568427926485E-03  0.599338216621E-03  0.631934273778E-03
  0.666308420630E-03  0.702558045193E-03  0.740785877770E-03  0.781100282724E-03  0.823615565845E-03
  0.868452298074E-03  0.915737656418E-03  0.965605782890E-03  0.101819816237E-02  0.107366402029E-02
  0.113216074109E-02  0.119385430846E-02  0.125891976839E-02  0.132754171595E-02  0.139991480719E-02
  0.147624429689E-02  0.155674660369E-02  0.164164990345E-02  0.173119475237E-02  0.182563474080E-02
  0.192523717930E-02  0.203028381795E-02  0.214107160044E-02  0.225791345415E-02  0.238113911751E-02
  0.251109600602E-02  0.264815011827E-02  0.279268698314E-02  0.294511264959E-02  0.310585472020E-02
  0.327536342973E-02  0.345411276979E-02  0.364260166064E-02  0.384135517128E-02  0.405092578852E-02
  0.427189473590E-02  0.450487334296E-02  0.475050446541E-02  0.500946395631E-02  0.528246218838E-02
  0.557024562701E-02  0.587359845355E-02  0.619334423790E-02  0.653034765912E-02  0.688551627232E-02
  0.725980231962E-02  0.765420458245E-02  0.806977027184E-02  0.850759695254E-02  0.896883449649E-02
  0.945468705968E-02  0.996641507620E-02  0.105053372618E-01  0.110728326186E-01  0.116703424307E-01
  0.122993722400E-01  0.129614937900E-01  0.136583469222E-01  0.143916414108E-01  0.151631587172E-01
  0.159747536448E-01  0.168283558726E-01  0.177259713430E-01  0.186696834771E-01  0.196616541898E-01
  0.207041246695E-01  0.217994158902E-01  0.229499288157E-01  0.241581442539E-01  0.254266223165E-01
  0.267580014335E-01  0.281549968690E-01  0.296203986805E-01  0.311570690584E-01  0.327679389792E-01
  0.344560040992E-01  0.362243198119E-01  0.380759953868E-01  0.400141871001E-01  0.420420902665E-01
  0.441629300703E-01  0.463799510938E-01  0.486964054328E-01  0.511155392827E-01  0.536405778780E-01
  0.562747086571E-01  0.590210625270E-01  0.618826930914E-01  0.648625537089E-01  0.679634722417E-01
  0.711881233548E-01  0.745389982275E-01  0.780183715360E-01  0.816282655735E-01  0.853704113756E-01
  0.892462067267E-01  0.932566709325E-01  0.974023962551E-01  0.101683495924E+00  0.106099548651E+00
  0.110649539608E+00  0.115331797837E+00  0.120143930117E+00  0.125082751331E+00  0.130144211412E+00
  0.135323319035E+00  0.140614062224E+00  0.146009326142E+00  0.151500808396E+00  0.157078932250E+00
  0.162732758241E+00  0.168449894770E+00  0.174216408339E+00  0.180016734210E+00  0.185833588347E+00
  0.191647881624E+00  0.197438637376E+00  0.203182913484E+00  0.208855730330E+00  0.214430006082E+00
  0.219876500977E+00  0.225163772506E+00  0.230258143624E+00  0.235123686454E+00  0.239722224151E+00
  0.244013353878E+00  0.247954493946E+00  0.251500958283E+00  0.254606061387E+00  0.257221256872E+00
  0.259296312658E+00  0.260779525727E+00  0.261617979252E+00  0.261757844764E+00  0.261144731831E+00
  0.259724087543E+00  0.257441647816E+00  0.254243942192E+00  0.250078853381E+00  0.244896232214E+00
  0.238648568039E+00  0.231291713760E+00  0.222785663811E+00  0.213095382303E+00  0.202191677352E+00
  0.190052116297E+00  0.176661975034E+00  0.162015213117E+00  0.146115464579E+00  0.128977032676E+00
  0.110625874883E+00  0.911005626628E-01  0.704531986409E-01  0.487502720506E-01  0.260734316306E-01
  0.252015363807E-02 -0.217957186059E-01 -0.467435880967E-01 -0.721758952531E-01 -0.979281111808E-01
 -0.123818956366E+00 -0.149650866273E+00 -0.175210723361E+00 -0.200270873773E+00 -0.224590446976E+00
 -0.247916998059E+00 -0.269988493999E+00 -0.290535664776E+00 -0.309284734737E+00 -0.325960536449E+00
 -0.340289990888E+00 -0.352005920382E+00 -0.360851152018E+00 -0.366582866154E+00 -0.368977141030E+00
 -0.367833635871E+00 -0.362980343762E+00 -0.354278335537E+00 -0.341626408401E+00 -0.324965547518E+00
 -0.304283103603E+00 -0.279616584714E+00 -0.251056955907E+00 -0.218751337330E+00 -0.182904990201E+00
 -0.143782482404E+00 -0.101707931310E+00 -0.570642319401E-01 -0.102911932337E-01  0.381174760390E-01
  0.876183672405E-01  0.137623763231E+00  0.187508182649E+00  0.236615972856E+00  0.284269765899E+00
  0.329779555776E+00  0.372452201578E+00  0.411601372418E+00  0.446558247982E+00  0.476683311100E+00
  0.501378975199E+00  0.520102073151E+00  0.532375320402E+00  0.537797503950E+00  0.536052488605E+00
  0.526917052099E+00  0.510267391148E+00  0.486084061809E+00  0.454455152041E+00  0.415577584418E+00
  0.369756550853E+00  0.317403153580E+00  0.259030364540E+00  0.195247430477E+00  0.126752855131E+00
  0.543260900456E-01 -0.211819340395E-01 -0.988593007014E-01 -0.177744485353E+00 -0.256838465936E+00
 -0.335117403235E+00 -0.411545713767E+00 -0.485089345041E+00 -0.554729050990E+00 -0.619473451947E+00
 -0.678371655317E+00 -0.730525214966E+00 -0.775099249785E+00 -0.811332639482E+00 -0.838547360803E+00
 -0.856157149567E+00 -0.863675688574E+00 -0.860724359957E+00 -0.847039402803E+00 -0.822478097597E+00
 -0.787023636908E+00 -0.740788436499E+00 -0.684015797714E+00 -0.617079961625E+00 -0.540484668181E+00
 -0.454860375041E+00 -0.360960316347E+00 -0.259655593020E+00 -0.151929482021E+00 -0.388711442854E-01
  0.783311213294E-01  0.198396969611E+00  0.319961384036E+00  0.441582332989E+00  0.561748770003E+00
  0.678889108369E+00  0.791380382242E+00  0.897558378096E+00  0.995729114894E+00  0.108418211994E+01
  0.116120603379E+01  0.122510714173E+01  0.127423148037E+01  0.130699119448E+01  0.132189580878E+01
  0.131758902149E+01  0.129289150248E+01  0.124684998955E+01  0.117879268786E+01  0.108839061688E+01
  0.975724065053E+00  0.841352751825E+00  0.686387597081E+00  0.512561220970E+00  0.322293393805E+00
  0.118746687146E+00  0.000000000000E+00  0.000000000000E+00  0.000000000000E+00  0.000000000000E+00
  0.000000000000E+00  0.000000000000E+00  0.000000000000E+00  0.000000000000E+00  0.000000000000E+00
  0.000000000000E+00  0.000000000000E+00  0.000000000000E+00  0.000000000000E+00  0.000000000000E+00
  0.000000000000E+00  0.000000000000E+00  0.000000000000E+00  0.000000000000E+00  0.000000000000E+00
  0.000000000000E+00  0.000000000000E+00  0.000000000000E+00  0.000000000000E+00  0.000000000000E+00
  0.000000000000E+00  0.000000000000E+00  0.000000000000E+00
 End of Dataset
